77
Lattice="10.26719046282867 0.0 0.0 0.0 10.26719046282867 0.0 0.0 0.0 32.0" Properties=species:S:1:pos:R:3:tags:I:1:MACE_forces:R:3:DFT_forces:R:3 slab=Cu100 species=tFUR+2H _ConfigSet_loc=" / 0 / 1" DFT_energy=84.89279349073279 pbc="T T T"
Cu       1.28339881       1.28339881       0.00000000        4       0.96133403       0.58626479       0.68025288      -0.00000007      -0.00000004       0.20645440
Cu       3.85019642       1.28339881       0.00000000        4       0.82799141       0.59679254       0.59570577      -0.00000067      -0.00000004       0.20645058
Cu       6.41699404       1.28339881       0.00000000        4       0.04242339       0.50948856       0.57498267       0.00000069      -0.00000002       0.20645066
Cu       8.98379165       1.28339881       0.00000000        4       0.00784429       0.58482883       0.25868934       0.00000007      -0.00000003       0.20645450
Cu       1.28339881       3.85019642       0.00000000        4       0.46038634       0.99998223       0.52550467      -0.00000004      -0.00000003       0.20645401
Cu       3.85019642       3.85019642       0.00000000        4       0.94383407       0.91381763       0.74767645       0.00000004       0.00000002       0.20645407
Cu       6.41699404       3.85019642       0.00000000        4       0.52601740       0.78675351       0.81271477       0.00000001       0.00000008       0.20645447
Cu       8.98379165       3.85019642       0.00000000        4       0.26766099       0.03976253       0.25762429       0.00000001       0.00000002       0.20645440
Cu       1.28339881       6.41699404       0.00000000        4       0.07654916       0.09851983       0.71195982      -0.00000073       0.00000001       0.20645055
Cu       3.85019642       6.41699404       0.00000000        4       0.42389953       0.59176566       0.36897963       0.00000073       0.00000000       0.20645059
Cu       6.41699404       6.41699404       0.00000000        4       0.36409444       0.66737480       0.46430733       0.00000004      -0.00000001       0.20645458
Cu       8.98379165       6.41699404       0.00000000        4       0.37483781       0.37098498       0.31411159      -0.00000003      -0.00000000       0.20645453
Cu       1.28339881       8.98379165       0.00000000        4       0.89670212       0.54498454       0.56157562      -0.00000003       0.00000008       0.20645454
Cu       3.85019642       8.98379165       0.00000000        4       0.63260974       0.98896609       0.32940757       0.00000002       0.00000003       0.20645445
Cu       6.41699404       8.98379165       0.00000000        4       0.89395528       0.79056303       0.25939136       0.00000000      -0.00000003       0.20645455
Cu       8.98379165       8.98379165       0.00000000        4       0.01123716       0.83597943       0.77554645       0.00000003       0.00000003       0.20645462
Cu       0.00000000       0.00000000       1.81500000        3       0.12324543       0.07544388       0.35138470      -0.00000402      -0.00001196      -0.02766730
Cu       2.56679762       0.00000000       1.81500000        3       0.55251382       0.17970825       0.66300918      -0.00086281      -0.00022437      -0.02909701
Cu       5.13359523       0.00000000       1.81500000        3       0.39472620       0.07848151       0.74616511       0.00000341      -0.00621366      -0.04555390
Cu       7.70039285       0.00000000       1.81500000        3       0.93919813       0.81042373       0.95516503       0.00086338      -0.00043478      -0.02886705
Cu       0.00000000       2.56679762       1.81500000        3       0.83379418       0.56751379       0.74936137      -0.00001464      -0.00001678      -0.02791498
Cu       2.56679762       2.56679762       1.81500000        3       0.00569622       0.76850494       0.76988741      -0.00085298       0.00019790      -0.02928061
Cu       5.13359523       2.56679762       1.81500000        3       0.11971592       0.64280164       0.16075061       0.00001391       0.00620277      -0.04562410
Cu       7.70039285       2.56679762       1.81500000        3       0.78589291       0.34269196       0.44642885       0.00085368       0.00042871      -0.02889645
Cu       0.00000000       5.13359523       1.81500000        3       0.72842747       0.47455657       0.23551884      -0.00087661      -0.00041341      -0.02907451
Cu       2.56679762       5.13359523       1.81500000        3       0.47595764       0.16326865       0.73772051       0.00000749      -0.00619221      -0.04572378
Cu       5.13359523       5.13359523       1.81500000        3       0.99635455       0.66801805       0.11079617       0.00087626      -0.00020575      -0.02914116
Cu       7.70039285       5.13359523       1.81500000        3       0.36798112       0.46631555       0.53234005      -0.00000718       0.00000639      -0.02766930
Cu       0.00000000       7.70039285       1.81500000        3       0.80110909       0.74846813       0.82217958      -0.00086671       0.00044212      -0.02887955
Cu       2.56679762       7.70039285       1.81500000        3       0.64607444       0.59755306       0.04082924      -0.00000065       0.00621864      -0.04556260
Cu       5.13359523       7.70039285       1.81500000        3       0.83430436       0.42595685       0.34026445       0.00086648       0.00021661      -0.02908277
Cu       7.70039285       7.70039285       1.81500000        3       0.70849183       0.92325471       0.94601558       0.00000084      -0.00000036      -0.02764487
Cu       1.28339881       1.28339881       3.63000000        2       0.14771803       0.97023916       0.28704043      -0.00379233      -0.00412065       0.02031828
Cu       3.85019642       1.28339881       3.63000000        2       0.92706892       0.30439142       0.86884277      -1.96727676      -0.00217174      -2.75928047
Cu       6.41699404       1.28339881       3.63000000        2       0.37851124       0.58829914       0.71429021       1.96912359      -0.00073184      -2.75733065
Cu       8.98379165       1.28339881       3.63000000        2       0.05285649       0.93914716       0.03779584       0.00179008      -0.00286802       0.02147575
Cu       1.28339881       3.85019642       3.63000000        2       0.86768892       0.01782331       0.04048666      -0.03458240      -0.06469000      -0.02703191
Cu       3.85019642       3.85019642       3.63000000        2       0.68684602       0.65345136       0.39938048       0.00207597       0.00042508      -0.07393052
Cu       6.41699404       3.85019642       3.63000000        2       0.21078654       0.60983439       0.64742995       0.03671425       0.06584589      -0.02419823
Cu       8.98379165       3.85019642       3.63000000        2       0.71183679       0.14610171       0.21142194      -0.00402561       0.00071274       0.02253604
Cu       1.28339881       6.41699404       3.63000000        2       0.71392819       0.78683109       0.83220263      -1.96813994       0.00325944      -2.76038358
Cu       3.85019642       6.41699404       3.63000000        2       0.89254111       0.19465156       0.39820769       1.96959090       0.00171185      -2.75871355
Cu       6.41699404       6.41699404       3.63000000        2       0.45092873       0.93154024       0.17796469       0.00509221       0.00063872       0.02456353
Cu       8.98379165       6.41699404       3.63000000        2       0.84857902       0.52498589       0.97134302      -0.00667041       0.00219289       0.02247523
Cu       1.28339881       8.98379165       3.63000000        2       0.14129769       0.94138537       0.15334800      -0.03613993       0.06561647      -0.02338115
Cu       3.85019642       8.98379165       3.63000000        2       0.56250409       0.12150492       0.19815141       0.00005734      -0.00002478      -0.07363686
Cu       6.41699404       8.98379165       3.63000000        2       0.35129585       0.41975727       0.32970630       0.03617917      -0.06569032      -0.02316199
Cu       8.98379165       8.98379165       3.63000000        2       0.09671437       0.06049622       0.39185599      -0.00009643      -0.00003167       0.02711837
Cu       0.00000000       0.00000000       5.44500000        1       0.48261502       0.99666203       0.15159423       0.00256405      -0.00870900      -0.21648711
Cu       2.56679762       0.00000000       5.44500000        1       0.81330490       0.95211062       0.02371619      -0.38591952      -0.19085407      -0.24749946
Cu       5.13359523       0.00000000       5.44500000        1       0.34138318       0.33999433       0.23880844       0.00084834     -69.11530846      -0.17242094
Cu       7.70039285       0.00000000       5.44500000        1       0.93349676       0.10338635       0.80614480       0.39334677      -0.19480172      -0.20937128
Cu       0.00000000       2.56679762       5.44500000        1       0.44502852       0.39326104       0.85018171       0.13441176       0.13703915      -0.00392778
Cu       2.56679762       2.56679762       5.44500000        1       0.44747932       0.67024661       0.46108032      -0.40279997       0.32789360      -0.04925209
Cu       5.13359523       2.56679762       5.44500000        1       0.71425934       0.27976810       0.87431839      -0.05731192      69.18645823      -0.00633054
Cu       7.70039285       2.56679762       5.44500000        1       0.99737256       0.37839060       0.02176991       0.37506266       0.20329154      -0.23010318
Cu       0.00000000       5.13359523       5.44500000        1       0.63855885       0.82297511       0.60411569      -0.27750468      -0.26470889      -0.10687892
Cu       2.56679762       5.13359523       5.44500000        1       0.82346894       0.03137751       0.18837709      -0.08090172     -69.25436257      -0.08916497
Cu       5.13359523       5.13359523       5.44500000        1       0.44390177       0.27610759       0.94134779       0.38272671      -0.22680595      -0.14914874
Cu       7.70039285       5.13359523       5.44500000        1       0.53729400       0.70445485       0.39211523      -0.04104803       0.00640567      -0.27367998
Cu       0.00000000       7.70039285       5.44500000        1       0.31271479       0.96264119       0.13157173      -0.39315842       0.19106473      -0.20173455
Cu       2.56679762       7.70039285       5.44500000        1       0.46665154       0.86460836       0.99684111      -0.00489637      69.12192761      -0.17588626
Cu       5.13359523       7.70039285       5.44500000        1       0.04231734       0.06227025       0.82693736       0.39671396       0.16456647      -0.20776050
Cu       7.70039285       7.70039285       5.44500000        1       0.29106458       0.31293540       0.69814273       0.00089324      -0.00070954      -0.20680435
C        0.00000000       2.80000000       7.84500000        0       0.96428332       0.12547276       0.52221908       3.52446839       3.36021115      -0.31028919
C       -0.18239651       4.16085465       7.84529340        0       0.10183892       0.78633406       0.38066007       3.76059513      -2.86033376      -0.25395401
O        1.00934983       4.80965694       7.84505237        0       0.94868147       0.35037634       0.99111081      -0.03329251      -0.36913472      -0.15109483
C        1.99139235       3.83368450       7.84470214        0       0.62951110       0.92701313       0.23574213      -0.08327617      -0.33841103      -0.19325055
C        1.40318044       2.58736551       7.84459703        0       0.69995291       0.03874973       0.10921817      -2.31097188       4.16680657      -0.26871377
C        3.36791757       4.28926521       7.84441929        0       0.77541875       0.24680328       0.29819898       0.17834424      -4.06095653      -0.20762605
O        4.33490962       3.53331941       7.84464740        0       0.77111749       0.02948388       0.91187019      -0.98594360       0.65278518      -0.28950669
H       -0.78545962       2.05237439       7.84506255        0       0.02473459       0.56472645       0.09419496      -2.97951610      -2.84326294       0.30258069
H       -1.06532547       4.79055512       7.84571394        0       0.42971969       0.61842888       0.53083296      -3.43170933       2.34030631       0.28469911
H        1.93944688       1.64422833       7.84420746        0       0.67358539       0.11965560       0.27428459       1.90757563      -3.50655050       0.25675503
H        3.48441075       5.40056810       7.84383821        0       0.80568456       0.49335511       0.57504410       0.40378437       3.36388507       0.26382148
H        2.56679762       6.41699404       5.44500000        0       0.08550318       0.85446627       0.01780263       0.00461799       0.01965230       5.73303295
H        5.13359523       1.28339881       5.44500000        0       0.71038068       0.56051157       0.82876813       0.00239732      -0.00745789       5.74498261
77
Lattice="10.26719046282867 0.0 0.0 0.0 10.26719046282867 0.0 0.0 0.0 32.0" Properties=species:S:1:pos:R:3:tags:I:1:MACE_forces:R:3:DFT_forces:R:3 slab=Cu100 species=tFUR+2H _ConfigSet_loc=" / 0 / 6" DFT_energy=84.88553118051601 pbc="T T T"
Cu       1.28339881       1.28339881       0.00000000        4       0.17657795       0.29972077       0.55332513      -0.00000007      -0.00000004       0.20645441
Cu       3.85019642       1.28339881       0.00000000        4       0.75057357       0.56682708       0.36471322      -0.00000068      -0.00000004       0.20645058
Cu       6.41699404       1.28339881       0.00000000        4       0.76598661       0.78229857       0.50697307       0.00000069      -0.00000002       0.20645066
Cu       8.98379165       1.28339881       0.00000000        4       0.30353271       0.99806826       0.38412111       0.00000007      -0.00000003       0.20645450
Cu       1.28339881       3.85019642       0.00000000        4       0.93431427       0.98607333       0.22944125      -0.00000004       0.00000002       0.20645409
Cu       3.85019642       3.85019642       0.00000000        4       0.53013500       0.69263449       0.37046158       0.00000002       0.00000002       0.20645407
Cu       6.41699404       3.85019642       0.00000000        4       0.87976871       0.51321393       0.57281598       0.00000001       0.00000002       0.20645439
Cu       8.98379165       3.85019642       0.00000000        4       0.57591834       0.43903718       0.64364699       0.00000002       0.00000002       0.20645440
Cu       1.28339881       6.41699404       0.00000000        4       0.29119869       0.28585689       0.25387940      -0.00000007       0.00000001       0.20645445
Cu       3.85019642       6.41699404       0.00000000        4       0.45438997       0.94418827       0.80750881      -0.00000068       0.00000000       0.20645059
Cu       6.41699404       6.41699404       0.00000000        4       0.67540309       0.97790616       0.23883255       0.00000069      -0.00000001       0.20645067
Cu       8.98379165       6.41699404       0.00000000        4       0.61818475       0.75050056       0.51180809       0.00000007      -0.00000000       0.20645453
Cu       1.28339881       8.98379165       0.00000000        4       0.39584308       0.16798032       0.54302233      -0.00000003       0.00000003       0.20645462
Cu       3.85019642       8.98379165       0.00000000        4       0.91708950       0.98646840       0.82324911       0.00000000       0.00000003       0.20645445
Cu       6.41699404       8.98379165       0.00000000        4       0.34466367       0.02120199       0.50996721       0.00000001       0.00000003       0.20645447
Cu       8.98379165       8.98379165       0.00000000        4       0.02510661       0.98043187       0.55028102       0.00000004       0.00000003       0.20645462
Cu       0.00000000       0.00000000       1.81500000        3       0.53762097       0.41012909       0.80437510      -0.00000205      -0.00001399      -0.02766450
Cu       2.56679762       0.00000000       1.81500000        3       0.32048794       0.34860477       0.85753461      -0.00086478      -0.00044115      -0.02888487
Cu       5.13359523       0.00000000       1.81500000        3       0.62241461       0.46183326       0.40049578       0.00000144      -0.00599688      -0.04576604
Cu       7.70039285       0.00000000       1.81500000        3       0.15267974       0.12328486       0.78273308       0.00086535      -0.00043275      -0.02886985
Cu       0.00000000       2.56679762       1.81500000        3       0.07164385       0.76158716       0.11532252      -0.00001278      -0.00001487      -0.02791234
Cu       2.56679762       2.56679762       1.81500000        3       0.56619898       0.53364105       0.91547392      -0.00085492       0.00041365      -0.02906993
Cu       5.13359523       2.56679762       1.81500000        3       0.95493491       0.95007435       0.86956793       0.00001204       0.00598617      -0.04583599
Cu       7.70039285       2.56679762       1.81500000        3       0.07879656       0.09209120       0.63278873       0.00085562       0.00042671      -0.02889920
Cu       0.00000000       5.13359523       1.81500000        3       0.36497382       0.99799707       0.22902040      -0.00001254       0.00001881      -0.02785255
Cu       2.56679762       5.13359523       1.81500000        3       0.93720395       0.90813766       0.39154026      -0.00085733      -0.00041252      -0.02906446
Cu       5.13359523       5.13359523       1.81500000        3       0.99589845       0.86548927       0.77395583       0.00001218      -0.00598516      -0.04581812
Cu       7.70039285       5.13359523       1.81500000        3       0.25399678       0.85126262       0.98866798       0.00085764      -0.00042582      -0.02889232
Cu       0.00000000       7.70039285       1.81500000        3       0.16776964       0.38616055       0.63604378      -0.00000168       0.00001001      -0.02765623
Cu       2.56679762       7.70039285       1.81500000        3       0.94447714       0.12408187       0.42288089      -0.00086573       0.00043999      -0.02888164
Cu       5.13359523       7.70039285       1.81500000        3       0.62527748       0.11796016       0.66293249       0.00000145       0.00599584      -0.04576436
Cu       7.70039285       7.70039285       1.81500000        3       0.81496463       0.17472032       0.12704117       0.00086592       0.00043181      -0.02886826
Cu       1.28339881       1.28339881       3.63000000        2       0.17961550       0.16679271       0.81068689      -0.00377315      -0.00412225       0.02034542
Cu       3.85019642       1.28339881       3.63000000        2       0.22779106       0.14625673       0.23669494      -1.96731553      -0.00217290      -2.75928102
Cu       6.41699404       1.28339881       3.63000000        2       0.29365714       0.38789501       0.28596301       1.96914316      -0.00073141      -2.75735835
Cu       8.98379165       1.28339881       3.63000000        2       0.06482500       0.75988875       0.51295500       0.00179011      -0.00286802       0.02147575
Cu       1.28339881       3.85019642       3.63000000        2       0.65839284       0.89104519       0.82615745       0.00044827       0.00066993       0.02289629
Cu       3.85019642       3.85019642       3.63000000        2       0.62742271       0.70344331       0.32391808      -0.06903906       0.00018816      -0.07426732
Cu       6.41699404       3.85019642       3.63000000        2       0.32863576       0.53292383       0.95187187       0.07198411       0.00024851      -0.07446399
Cu       8.98379165       3.85019642       3.63000000        2       0.35948986       0.79860706       0.73254043      -0.00321112       0.00071222       0.02253530
Cu       1.28339881       6.41699404       3.63000000        2       0.02142560       0.35918890       0.67904241      -0.00440331       0.00358421       0.02106510
Cu       3.85019642       6.41699404       3.63000000        2       0.55543727       0.93797555       0.73331129      -1.96723490       0.00194854      -2.75895080
Cu       6.41699404       6.41699404       3.63000000        2       0.91677812       0.08953373       0.95725187       1.96899750       0.00055116      -2.75712313
Cu       8.98379165       6.41699404       3.63000000        2       0.73995630       0.83197343       0.19044870       0.00251344       0.00219341       0.02247457
Cu       1.28339881       8.98379165       3.63000000        2       0.74681477       0.21173304       0.85222920      -0.00078558      -0.00006665       0.02700560
Cu       3.85019642       8.98379165       3.63000000        2       0.83809189       0.55602377       0.51301830      -0.07146988      -0.00002338      -0.07363949
Cu       6.41699404       8.98379165       3.63000000        2       0.15590581       0.84900187       0.74477189       0.07153538      -0.00000580      -0.07355138
Cu       8.98379165       8.98379165       3.63000000        2       0.12630865       0.61001240       0.01393548       0.00072023      -0.00003167       0.02711837
Cu       0.00000000       0.00000000       5.44500000        1       0.25594756       0.45966015       0.82200934       0.00368059      -0.01024396      -0.21648722
Cu       2.56679762       0.00000000       5.44500000        1       0.58523167       0.12156041       0.49069857      -0.38703616      -0.21905255      -0.24749965
Cu       5.13359523       0.00000000       5.44500000        1       0.06386046       0.63751947       0.05062711      -0.00026821     -69.08710524      -0.17242076
Cu       7.70039285       0.00000000       5.44500000        1       0.45959617       0.33529381       0.56578772       0.39446341      -0.19326668      -0.20937117
Cu       0.00000000       2.56679762       5.44500000        1       0.72558173       0.74929812       0.36022026       0.13551171       0.13855726      -0.00392782
Cu       2.56679762       2.56679762       5.44500000        1       0.07212816       0.34035217       0.30623182      -0.40391205       0.35544729      -0.04925199
Cu       5.13359523       2.56679762       5.44500000        1       0.37828011       0.53319638       0.54298173      -0.05841188      69.15841464      -0.00633032
Cu       7.70039285       2.56679762       5.44500000        1       0.29870729       0.12490724       0.01474907       0.37617479       0.20176101      -0.23010308
Cu       0.00000000       5.13359523       5.44500000        1       0.07018717       0.65125041       0.59714927       0.11741906      -0.07252487      -0.10691174
Cu       2.56679762       5.13359523       5.44500000        1       0.68491715       0.43645506       0.72511079      -0.47636418      -0.32457094      -0.11796896
Cu       5.13359523       5.13359523       5.44500000        1       0.34855478       0.80651745       0.31752044      -0.01196952     -69.15233113      -0.11762968
Cu       7.70039285       5.13359523       5.44500000        1       0.71028038       0.39597334       0.64484372       0.35433737      -0.18577057      -0.27364482
Cu       0.00000000       7.70039285       5.44500000        1       0.82002375       0.64940199       0.11226604       0.00239651      -0.00110213      -0.20176971
Cu       2.56679762       7.70039285       5.44500000        1       0.83569140       0.32957951       0.69293503      -0.40045692       0.19518355      -0.20832694
Cu       5.13359523       7.70039285       5.44500000        1       0.35838050       0.81165194       0.61894475       0.00116014      69.08933648      -0.17529310
Cu       7.70039285       7.70039285       5.44500000        1       0.93765215       0.71568037       0.69559839       0.39645056       0.19146217      -0.20676915
C        0.00000000       2.80000000       7.84500000        0       0.82350396       0.97386453       0.42207241       3.52449423       3.36024558      -0.31031322
C       -0.18239651       4.16085465       7.84529340        0       0.62928305       0.32201953       0.89185387       3.76092863      -2.86007018      -0.25424186
O        1.00934983       4.80965694       7.84505237        0       0.05437306       0.44911619       0.99248291      -0.02745324      -0.36328172      -0.16012725
C        1.99139235       3.83368450       7.84470214        0       0.18354530       0.70610739       0.53410997      -0.08245621      -0.33468184      -0.19695670
C        1.40318044       2.58736551       7.84459703        0       0.36299448       0.96111910       0.08378377      -2.31092503       4.16694927      -0.26881041
C        3.36791757       4.28926521       7.84441929        0       0.82519839       0.97511073       0.59710467       0.17342617      -4.05538325      -0.21412045
O        4.33490962       3.53331941       7.84464740        0       0.15625553       0.67791852       0.56999490      -0.98681036       0.65166861      -0.28848615
H       -0.78545962       2.05237439       7.84506255        0       0.89349003       0.36980306       0.10696227      -2.97951610      -2.84326294       0.30258069
H       -1.06532547       4.79055512       7.84571394        0       0.00510747       0.07770439       0.12928813      -3.43172603       2.34030270       0.28470441
H        1.93944688       1.64422833       7.84420746        0       0.19274297       0.34588025       0.17919734       1.90757508      -3.50655467       0.25675713
H        3.48441075       5.40056810       7.84383821        0       0.42886963       0.69751224       0.28699376       0.40537900       3.36313622       0.26522019
H        5.13359523       6.41699404       5.44500000        0       0.18302645       0.80898610       0.41850062       0.00161173       0.00412180       5.74868139
H        5.13359523       1.28339881       5.44500000        0       0.05213703       0.30239097       0.08484770       0.00239732      -0.00745789       5.74498261
77
Lattice="10.26719046282867 0.0 0.0 0.0 10.26719046282867 0.0 0.0 0.0 32.0" Properties=species:S:1:pos:R:3:tags:I:1:MACE_forces:R:3:DFT_forces:R:3 slab=Cu100 species=tFUR+2H _ConfigSet_loc=" / 0 / 7" DFT_energy=84.88613994679955 pbc="T T T"
Cu       1.28339881       1.28339881       0.00000000        4       0.49237980       0.08517584       0.04133625      -0.00000002      -0.00000004       0.20645448
Cu       3.85019642       1.28339881       0.00000000        4       0.96964903       0.51658090       0.52450798      -0.00000003      -0.00000005       0.20645447
Cu       6.41699404       1.28339881       0.00000000        4       0.39127589       0.83896594       0.86800510      -0.00000001      -0.00000073       0.20645066
Cu       8.98379165       1.28339881       0.00000000        4       0.97471460       0.54556404       0.64039351       0.00000008      -0.00000004       0.20645448
Cu       1.28339881       3.85019642       0.00000000        4       0.71228910       0.17189736       0.07380990      -0.00000003       0.00000002       0.20645410
Cu       3.85019642       3.85019642       0.00000000        4       0.18947063       0.22549325       0.60122779      -0.00000003      -0.00000003       0.20645407
Cu       6.41699404       3.85019642       0.00000000        4       0.64527175       0.41781829       0.37382957       0.00000000       0.00000066       0.20645050
Cu       8.98379165       3.85019642       0.00000000        4       0.43772498       0.19829246       0.91620288       0.00000008       0.00000003       0.20645431
Cu       1.28339881       6.41699404       0.00000000        4       0.87804170       0.53885741       0.34722873      -0.00000007       0.00000001       0.20645445
Cu       3.85019642       6.41699404       0.00000000        4       0.17768548       0.89121217       0.67000128      -0.00000068       0.00000001       0.20645058
Cu       6.41699404       6.41699404       0.00000000        4       0.82107968       0.79221872       0.99019361       0.00000069       0.00000004       0.20645060
Cu       8.98379165       6.41699404       0.00000000        4       0.53469979       0.04050077       0.74944673       0.00000008       0.00000000       0.20645452
Cu       1.28339881       8.98379165       0.00000000        4       0.58573630       0.71791186       0.09945229      -0.00000002       0.00000003       0.20645463
Cu       3.85019642       8.98379165       0.00000000        4       0.81551175       0.90664478       0.59387251       0.00000001       0.00000009       0.20645453
Cu       6.41699404       8.98379165       0.00000000        4       0.41953147       0.92472811       0.91443480      -0.00000000       0.00000004       0.20645448
Cu       8.98379165       8.98379165       0.00000000        4       0.43950886       0.34699150       0.51923243       0.00000004       0.00000003       0.20645462
Cu       0.00000000       0.00000000       1.81500000        3       0.50599213       0.58958433       0.43096029      -0.00000002      -0.00001590      -0.02766719
Cu       2.56679762       0.00000000       1.81500000        3       0.79311042       0.15431983       0.56892403      -0.00000170      -0.00001086      -0.02766413
Cu       5.13359523       0.00000000       1.81500000        3       0.73869726       0.44336612       0.97395243      -0.00043082      -0.00065027      -0.02908408
Cu       7.70039285       0.00000000       1.81500000        3       0.04662451       0.48835631       0.20964420       0.00043250      -0.00086555      -0.02886978
Cu       0.00000000       2.56679762       1.81500000        3       0.41430794       0.00889191       0.78286178       0.00020598      -0.00001492      -0.02812712
Cu       2.56679762       2.56679762       1.81500000        3       0.01989295       0.52753071       0.14541881      -0.00020862      -0.00001861      -0.02806135
Cu       5.13359523       2.56679762       1.81500000        3       0.30298937       0.63407719       0.53374774      -0.00619965      -0.00022556      -0.04583598
Cu       7.70039285       2.56679762       1.81500000        3       0.47418612       0.29814463       0.91517819       0.00620226      -0.00000555      -0.04558009
Cu       0.00000000       5.13359523       1.81500000        3       0.47787703       0.12968437       0.62844659      -0.00001051       0.00002077      -0.02785534
Cu       2.56679762       5.13359523       1.81500000        3       0.29123848       0.39177235       0.59679718      -0.00085738      -0.00041258      -0.02906445
Cu       5.13359523       5.13359523       1.81500000        3       0.71043823       0.58100854       0.21648424      -0.00042007      -0.00533887      -0.04682669
Cu       7.70039285       5.13359523       1.81500000        3       0.04829633       0.47274911       0.69997688       0.00128793       0.00043722      -0.03011299
Cu       0.00000000       7.70039285       1.81500000        3       0.89650016       0.35446060       0.26987138      -0.00000168       0.00001001      -0.02765623
Cu       2.56679762       7.70039285       1.81500000        3       0.71859669       0.48180859       0.54744608      -0.00086376       0.00044202      -0.02887885
Cu       5.13359523       7.70039285       1.81500000        3       0.85525038       0.54253352       0.95841061       0.00000140       0.00621465      -0.04554951
Cu       7.70039285       7.70039285       1.81500000        3       0.13844113       0.34281052       0.82683045       0.00086400       0.00043385      -0.02886556
Cu       1.28339881       1.28339881       3.63000000        2       0.58023204       0.51839190       0.44857010       0.00081959      -0.00414208       0.02247142
Cu       3.85019642       1.28339881       3.63000000        2       0.71623607       0.80266951       0.91884608      -0.06466936      -0.03793769      -0.02588571
Cu       6.41699404       1.28339881       3.63000000        2       0.24409516       0.54525897       0.98252945       0.00056369      -1.96931708      -2.75734493
Cu       8.98379165       1.28339881       3.63000000        2       0.63855120       0.80653523       0.84012498       0.06313068      -0.03861702      -0.02693171
Cu       1.28339881       3.85019642       3.63000000        2       0.38054796       0.08083993       0.60781894       0.00085639       0.00042580       0.02306234
Cu       3.85019642       3.85019642       3.63000000        2       0.89915522       0.43774473       0.31304376      -0.09922311      -0.02999569      -0.07426710
Cu       6.41699404       3.85019642       3.63000000        2       0.06047277       0.51927209       0.06487384       0.03623486       1.90288557      -2.80784572
Cu       8.98379165       3.85019642       3.63000000        2       0.28527657       0.87797866       0.27145205       0.06231407       0.03619727      -0.02783211
Cu       1.28339881       6.41699404       3.63000000        2       0.68253671       0.02211923       0.63626598      -0.00440330       0.00358423       0.02106510
Cu       3.85019642       6.41699404       3.63000000        2       0.55357759       0.79987512       0.54012279      -1.96747879       0.00235651      -2.75911649
Cu       6.41699404       6.41699404       3.63000000        2       0.15465841       0.13173516       0.52252269       1.96897745       0.00514369      -2.75924874
Cu       8.98379165       6.41699404       3.63000000        2       0.94167479       0.55939772       0.95734347       0.00277737       0.00260166       0.02228052
Cu       1.28339881       8.98379165       3.63000000        2       0.23242659       0.90340294       0.08053312      -0.00037725       0.00019730       0.02719969
Cu       3.85019642       8.98379165       3.63000000        2       0.87326265       0.58125509       0.30054029      -0.03596925       0.06551729      -0.02325004
Cu       6.41699404       8.98379165       3.63000000        2       0.76705308       0.18606209       0.42092541       0.03577082       0.06135031      -0.02512186
Cu       8.98379165       8.98379165       3.63000000        2       0.92097253       0.23803064       0.20704380       0.00057584      -0.00017596       0.02711841
Cu       0.00000000       0.00000000       5.44500000        1       0.47620834       0.08187135       0.05199248       0.00521504      -0.01122610      -0.21648719
Cu       2.56679762       0.00000000       5.44500000        1       0.87492504       0.91424569       0.28790707       0.00699210      -0.02785838      -0.24753478
Cu       5.13359523       0.00000000       5.44500000        1       0.40989193       0.37528424       0.56554110      -0.19258039      -0.36506590      -0.20488526
Cu       7.70039285       0.00000000       5.44500000        1       0.19160749       0.06988544       0.14573846       0.19121159      -0.39648903      -0.20937117
Cu       0.00000000       2.56679762       5.44500000        1       0.18325967       0.41344610       0.12770357       0.16521812       0.13842357      -0.00392766
Cu       2.56679762       2.56679762       5.44500000        1       0.02928237       0.68550139       0.42106668      -0.03808559       0.16313587      -0.04928560
Cu       5.13359523       2.56679762       5.44500000        1       0.96595305       0.96326366       0.55493149     -69.17745920       0.03953799      -0.00633052
Cu       7.70039285       2.56679762       5.44500000        1       0.20611083       0.93368340       0.49406369      69.09849590       0.00943020      -0.19779650
Cu       0.00000000       5.13359523       5.44500000        1       0.25738655       0.41892115       0.75928986       0.11895351      -0.07140925      -0.10691164
Cu       2.56679762       5.13359523       5.44500000        1       0.04073004       0.19272271       0.92720715      -0.47678210      -0.32498930      -0.11796898
Cu       5.13359523       5.13359523       5.44500000        1       0.28741022       0.98655186       0.12803870      -0.20428194     -68.78650481      -0.11759699
Cu       7.70039285       5.13359523       5.44500000        1       0.58048601       0.23313180       0.73032599       0.54553169       0.20822762      -0.27360971
Cu       0.00000000       7.70039285       5.44500000        1       0.71461200       0.82169662       0.37991380       0.00239673      -0.00110191      -0.20176971
Cu       2.56679762       7.70039285       5.44500000        1       0.07506964       0.45615584       0.92445307      -0.39934049       0.19671878      -0.20832704
Cu       5.13359523       7.70039285       5.44500000        1       0.50093418       0.38785321       0.59200608       0.00102643      69.11907376      -0.17529330
Cu       7.70039285       7.70039285       5.44500000        1       0.20779524       0.49324067       0.66912295       0.39546761       0.19299740      -0.20676918
C        0.00000000       2.80000000       7.84500000        0       0.61729935       0.21979800       0.58153672       3.52472189       3.36026107      -0.31015719
C       -0.18239651       4.16085465       7.84529340        0       0.86550223       0.41881472       0.94341722       3.76106264      -2.86000723      -0.25414701
O        1.00934983       4.80965694       7.84505237        0       0.03679287       0.52698827       0.55297729      -0.02745252      -0.36328129      -0.16012678
C        1.99139235       3.83368450       7.84470214        0       0.52247925       0.85604080       0.38046535      -0.08239514      -0.33474365      -0.19700835
C        1.40318044       2.58736551       7.84459703        0       0.30515075       0.63208475       0.51815775      -2.31079048       4.16690228      -0.26889512
C        3.36791757       4.28926521       7.84441929        0       0.17058802       0.87602103       0.94682509       0.17326559      -4.05556934      -0.21413511
O        4.33490962       3.53331941       7.84464740        0       0.27973465       0.96865709       0.58671967      -0.99136635       0.64904852      -0.28695955
H       -0.78545962       2.05237439       7.84506255        0       0.93480549       0.64174533       0.54796547      -2.97960848      -2.84324643       0.30250816
H       -1.06532547       4.79055512       7.84571394        0       0.17338023       0.86168770       0.29330155      -3.43175388       2.34028059       0.28468050
H        1.93944688       1.64422833       7.84420746        0       0.06792524       0.12819521       0.34377798       1.90750012      -3.50654491       0.25681395
H        3.48441075       5.40056810       7.84383821        0       0.40944475       0.53717565       0.83261787       0.40538493       3.36313297       0.26521637
H        5.13359523       6.41699404       5.44500000        0       0.88157889       0.34673365       0.28161463       0.00163852       0.00404454       5.74868139
H        6.41699404       2.56679762       5.44500000        0       0.20428078       0.06125127       0.36566646       0.00791452      -0.00325165       5.74348476
77
Lattice="10.26719046282867 0.0 0.0 0.0 10.26719046282867 0.0 0.0 0.0 32.0" Properties=species:S:1:pos:R:3:tags:I:1:MACE_forces:R:3:DFT_forces:R:3 slab=Cu100 species=tFUR+2H _ConfigSet_loc=" / 0 / 9" DFT_energy=84.89951215169465 pbc="T T T"
Cu       1.28339881       1.28339881       0.00000000        4       0.37857361       0.45098080       0.48661764      -0.00000002      -0.00000004       0.20645448
Cu       3.85019642       1.28339881       0.00000000        4       0.16991299       0.67167775       0.45571894       0.00000002      -0.00000004       0.20645456
Cu       6.41699404       1.28339881       0.00000000        4       0.74736798       0.60167184       0.84196618      -0.00000001      -0.00000008       0.20645457
Cu       8.98379165       1.28339881       0.00000000        4       0.03317616       0.26665460       0.72282676       0.00000003      -0.00000003       0.20645457
Cu       1.28339881       3.85019642       0.00000000        4       0.82160994       0.20271020       0.90443652      -0.00000003       0.00000002       0.20645410
Cu       3.85019642       3.85019642       0.00000000        4       0.54862528       0.54430429       0.69728611      -0.00000003      -0.00000005       0.20645407
Cu       6.41699404       3.85019642       0.00000000        4       0.16564864       0.05056705       0.79791290       0.00000000      -0.00000075       0.20645050
Cu       8.98379165       3.85019642       0.00000000        4       0.80615143       0.54151636       0.20676801       0.00000008       0.00000001       0.20645431
Cu       1.28339881       6.41699404       0.00000000        4       0.06959459       0.40443895       0.49099588      -0.00000007       0.00000001       0.20645445
Cu       3.85019642       6.41699404       0.00000000        4       0.00443760       0.64646838       0.00852188      -0.00000074       0.00000001       0.20645050
Cu       6.41699404       6.41699404       0.00000000        4       0.04746397       0.32993784       0.36978950       0.00000069       0.00000070       0.20644669
Cu       8.98379165       6.41699404       0.00000000        4       0.12452633       0.90937181       0.71810611       0.00000014       0.00000001       0.20645443
Cu       1.28339881       8.98379165       0.00000000        4       0.95493313       0.67579065       0.79495140      -0.00000002       0.00000003       0.20645463
Cu       3.85019642       8.98379165       0.00000000        4       0.15979175       0.01136964       0.42028366       0.00000001       0.00000010       0.20645453
Cu       6.41699404       8.98379165       0.00000000        4       0.88711229       0.12917393       0.59631872      -0.00000000       0.00000014       0.20645448
Cu       8.98379165       8.98379165       0.00000000        4       0.11729337       0.89836737       0.69750473       0.00000004       0.00000004       0.20645462
Cu       0.00000000       0.00000000       1.81500000        3       0.77493316       0.00196973       0.59043018      -0.00000205      -0.00001393      -0.02766440
Cu       2.56679762       0.00000000       1.81500000        3       0.47499141       0.87597058       0.42341188       0.00000029      -0.00000893      -0.02766140
Cu       5.13359523       0.00000000       1.81500000        3       0.97227300       0.69146092       0.81042223       0.00000138       0.00021442      -0.02786128
Cu       7.70039285       0.00000000       1.81500000        3       0.92495311       0.96843394       0.00915517       0.00000034      -0.00000053      -0.02764648
Cu       0.00000000       2.56679762       1.81500000        3       0.90994375       0.44684080       0.84475778      -0.00001075      -0.00001689      -0.02791504
Cu       2.56679762       2.56679762       1.81500000        3       0.21114628       0.92320245       0.02719684       0.00000803      -0.00002027      -0.02784938
Cu       5.13359523       2.56679762       1.81500000        3       0.68971456       0.89013512       0.39784739      -0.00042024      -0.00108770      -0.02915955
Cu       7.70039285       2.56679762       1.81500000        3       0.68090228       0.91477062       0.44852736       0.00042292      -0.00087037      -0.02889940
Cu       0.00000000       5.13359523       1.81500000        3       0.78544744       0.05314571       0.19954713       0.00020625       0.00001881      -0.02806745
Cu       2.56679762       5.13359523       1.81500000        3       0.09736899       0.43421898       0.60538680      -0.00107124      -0.00041454      -0.02927245
Cu       5.13359523       5.13359523       1.81500000        3       0.81033335       0.43082391       0.56176650      -0.00619988      -0.00620394      -0.06344410
Cu       7.70039285       5.13359523       1.81500000        3       0.37469527       0.99259268       0.30893518       0.00706483      -0.00042781      -0.04679105
Cu       0.00000000       7.70039285       1.81500000        3       0.24346295       0.28327908       0.79554843       0.00000035       0.00001198      -0.02765902
Cu       2.56679762       7.70039285       1.81500000        3       0.93021153       0.53475799       0.71657094      -0.00086554       0.00044371      -0.02888128
Cu       5.13359523       7.70039285       1.81500000        3       0.44386807       0.05729440       0.34951444      -0.00043081       0.00707718      -0.04676986
Cu       7.70039285       7.70039285       1.81500000        3       0.25363411       0.57177138       0.86557837       0.00129596       0.00129867      -0.03008863
Cu       1.28339881       1.28339881       3.63000000        2       0.17217705       0.85370051       0.99677504       0.00081901      -0.00412261       0.02249897
Cu       3.85019642       1.28339881       3.63000000        2       0.96283002       0.37247368       0.41686031       0.00088268      -0.00271144       0.02431560
Cu       6.41699404       1.28339881       3.63000000        2       0.11210841       0.40672877       0.33963781       0.00068113      -0.00545466       0.02427838
Cu       8.98379165       1.28339881       3.63000000        2       0.60767843       0.23645318       0.47147077      -0.00253822      -0.00327654       0.02343541
Cu       1.28339881       3.85019642       3.63000000        2       0.26704555       0.94377601       0.33895631       0.00086029       0.00038811       0.02306416
Cu       3.85019642       3.85019642       3.63000000        2       0.56687355       0.68571562       0.80386407      -0.09843187      -0.10046475      -0.07314562
Cu       6.41699404       3.85019642       3.63000000        2       0.86558874       0.22568546       0.49206924       0.03543680      -2.03333092      -2.80687329
Cu       8.98379165       3.85019642       3.63000000        2       0.99226113       0.09935731       0.08288074       0.06231698      -0.03530407      -0.02783742
Cu       1.28339881       6.41699404       3.63000000        2       0.77227733       0.99941564       0.16470925      -0.00439911       0.00360240       0.02103923
Cu       3.85019642       6.41699404       3.63000000        2       0.03252331       0.67335907       0.78415082      -2.03235460       0.03678421      -2.80835903
Cu       6.41699404       6.41699404       3.63000000        2       0.30837180       0.77576108       0.90316936       1.96817714       1.96831340      -5.54006293
Cu       8.98379165       6.41699404       3.63000000        2       0.62030362       0.85264585       0.49094047       0.06844945       0.03794594      -0.02809206
Cu       1.28339881       8.98379165       3.63000000        2       0.56760203       0.71923422       0.03103240      -0.00037728       0.00019735       0.02719967
Cu       3.85019642       8.98379165       3.63000000        2       0.87418739       0.47214859       0.29871088      -0.03596963       0.06633241      -0.02325057
Cu       6.41699404       8.98379165       3.63000000        2       0.65707358       0.63142307       0.64092601       0.03577117       0.07053478      -0.02512251
Cu       8.98379165       8.98379165       3.63000000        2       0.05779005       0.34398155       0.44537514       0.00057589       0.00064061       0.02711838
Cu       0.00000000       0.00000000       5.44500000        1       0.22366176       0.22239479       0.66265309       0.00368080      -0.01011027      -0.21648729
Cu       2.56679762       0.00000000       5.44500000        1       0.23502753       0.85922273       0.62522923       0.00852020      -0.02674856      -0.24753489
Cu       5.13359523       0.00000000       5.44500000        1       0.46727275       0.54850660       0.44105912      -0.00040323       0.03022941      -0.20492045
Cu       7.70039285       0.00000000       5.44500000        1       0.54138710       0.63379729       0.82596956      -0.00095943      -0.00096246      -0.20940637
Cu       0.00000000       2.56679762       5.44500000        1       0.22220036       0.12156821       0.63994940       0.13704618       0.13730749      -0.00392780
Cu       2.56679762       2.56679762       5.44500000        1       0.64372495       0.98274544       0.29495169      -0.01010450       0.16206679      -0.04928567
Cu       5.13359523       2.56679762       5.44500000        1       0.91783089       0.76451252       0.02899720      -0.25101121      -0.35386913      -0.03727689
Cu       7.70039285       2.56679762       5.44500000        1       0.14568098       0.57279634       0.77331658       0.17315527      -0.38606387      -0.23010308
Cu       0.00000000       5.13359523       5.44500000        1       0.35859717       0.02246813       0.00876585       0.14713346      -0.07252508      -0.10691156
Cu       2.56679762       5.13359523       5.44500000        1       0.40693601       0.30065031       0.49428938      -0.50315448      -0.32611127      -0.11796884
Cu       5.13359523       5.13359523       5.44500000        1       0.55427264       0.36210876       0.79949824     -69.14185593     -69.19355068      -0.09087936
Cu       7.70039285       5.13359523       5.44500000        1       0.25050605       0.69656280       0.46294517      69.47263837      -0.18728851      -0.24126981
Cu       0.00000000       7.70039285       5.44500000        1       0.93688105       0.21483457       0.18651680       0.00393122       0.00001416      -0.20176960
Cu       2.56679762       7.70039285       5.44500000        1       0.27447576       0.49871905       0.29549651      -0.40085170       0.19780002      -0.20832694
Cu       5.13359523       7.70039285       5.44500000        1       0.47040467       0.27222572       0.11471355      -0.19116308      69.51666396      -0.17526006
Cu       7.70039285       7.70039285       5.44500000        1       0.98710427       0.97652815       0.83354990       0.58763231       0.58852327      -0.20673402
C        0.00000000       2.80000000       7.84500000        0       0.27580450       0.49978965       0.30607970       3.52452519       3.36022547      -0.31029261
C       -0.18239651       4.16085465       7.84529340        0       0.32343451       0.32132952       0.93805683       3.76118022      -2.86014363      -0.25406289
O        1.00934983       4.80965694       7.84505237        0       0.05340583       0.70107830       0.27901884      -0.02743467      -0.36328334      -0.16011674
C        1.99139235       3.83368450       7.84470214        0       0.28320688       0.68561250       0.00772452      -0.08239354      -0.33476255      -0.19700939
C        1.40318044       2.58736551       7.84459703        0       0.34101522       0.94552029       0.58841405      -2.31078834       4.16690187      -0.26889805
C        3.36791757       4.28926521       7.84441929        0       0.19960321       0.97824570       0.66041161       0.17255996      -4.05618351      -0.21353408
O        4.33490962       3.53331941       7.84464740        0       0.84910263       0.87220021       0.62647489      -0.98751957       0.64337838      -0.29168545
H       -0.78545962       2.05237439       7.84506255        0       0.10124985       0.45253485       0.85588453      -2.97951544      -2.84325831       0.30258018
H       -1.06532547       4.79055512       7.84571394        0       0.08690653       0.50873604       0.55091232      -3.43190856       2.34032576       0.28454987
H        1.93944688       1.64422833       7.84420746        0       0.09835424       0.70699401       0.44734682       1.90749699      -3.50654556       0.25681563
H        3.48441075       5.40056810       7.84383821        0       0.83574801       0.61810015       0.43035184       0.40551535       3.36312880       0.26511069
H        5.13359523       6.41699404       5.44500000        0       0.77511259       0.27710590       0.76634504      -0.07606315       0.08988346       5.74903147
H        6.41699404       5.13359523       5.44500000        0       0.04393545       0.33259968       0.81020073       0.09021156      -0.07511624       5.74774291
77
Lattice="10.26719046282867 0.0 0.0 0.0 10.26719046282867 0.0 0.0 0.0 32.0" Properties=species:S:1:pos:R:3:tags:I:1:MACE_forces:R:3:DFT_forces:R:3 slab=Cu100 species=tFURha+H _ConfigSet_loc=" / 0 / 15" DFT_energy=52.68477117099819 pbc="T T T"
Cu       1.28339881       1.28339881       0.00000000        4       0.48070930       0.26129727       0.73438967      -0.00000002      -0.00000004       0.20645448
Cu       3.85019642       1.28339881       0.00000000        4       0.01982039       0.77877227       0.25745638       0.00000003      -0.00000004       0.20645457
Cu       6.41699404       1.28339881       0.00000000        4       0.45251332       0.85836189       0.81672359      -0.00000001      -0.00000002       0.20645464
Cu       8.98379165       1.28339881       0.00000000        4       0.18619308       0.84373155       0.95428413       0.00000002      -0.00000003       0.20645458
Cu       1.28339881       3.85019642       0.00000000        4       0.74109849       0.04696513       0.19412435      -0.00000003       0.00000002       0.20645410
Cu       3.85019642       3.85019642       0.00000000        4       0.30438376       0.16072556       0.85125548       0.00000003      -0.00000004       0.20645417
Cu       6.41699404       3.85019642       0.00000000        4       0.09921018       0.80707433       0.29977415       0.00000000      -0.00000004       0.20645448
Cu       8.98379165       3.85019642       0.00000000        4       0.62115985       0.85447985       0.20191376       0.00000001       0.00000002       0.20645440
Cu       1.28339881       6.41699404       0.00000000        4       0.23173532       0.46663628       0.80447687      -0.00000007       0.00000001       0.20645445
Cu       3.85019642       6.41699404       0.00000000        4       0.46911914       0.80939866       0.61674206      -0.00000068       0.00000000       0.20645059
Cu       6.41699404       6.41699404       0.00000000        4       0.07234479       0.18917406       0.26614403       0.00000069      -0.00000001       0.20645067
Cu       8.98379165       6.41699404       0.00000000        4       0.20645595       0.42400160       0.95337792       0.00000007      -0.00000000       0.20645453
Cu       1.28339881       8.98379165       0.00000000        4       0.29341813       0.47161612       0.47231338      -0.00000002       0.00000003       0.20645463
Cu       3.85019642       8.98379165       0.00000000        4       0.87122450       0.17645900       0.13244616       0.00000001       0.00000009       0.20645454
Cu       6.41699404       8.98379165       0.00000000        4       0.82164207       0.34700505       0.25619848      -0.00000000       0.00000009       0.20645456
Cu       8.98379165       8.98379165       0.00000000        4       0.70562760       0.80286160       0.38761915       0.00000003       0.00000003       0.20645463
Cu       0.00000000       0.00000000       1.81500000        3       0.78417308       0.37456109       0.02971623      -0.00000205      -0.00001393      -0.02766440
Cu       2.56679762       0.00000000       1.81500000        3       0.81150254       0.41210026       0.35388719       0.00000027      -0.00000895      -0.02766143
Cu       5.13359523       0.00000000       1.81500000        3       0.86959343       0.77005052       0.14789958       0.00000144       0.00021422      -0.02786143
Cu       7.70039285       0.00000000       1.81500000        3       0.39331318       0.05303524       0.80024520       0.00000030      -0.00000055      -0.02764641
Cu       0.00000000       2.56679762       1.81500000        3       0.74116012       0.25724285       0.02540751      -0.00001278      -0.00001492      -0.02791225
Cu       2.56679762       2.56679762       1.81500000        3       0.22562042       0.33485870       0.32757178       0.00000956      -0.00001861      -0.02784730
Cu       5.13359523       2.56679762       1.81500000        3       0.76462314       0.10759290       0.31199956       0.00001205      -0.00022557      -0.02794436
Cu       7.70039285       2.56679762       1.81500000        3       0.79974505       0.79708434       0.97335908      -0.00000887      -0.00000555      -0.02767657
Cu       0.00000000       5.13359523       1.81500000        3       0.31406029       0.15811878       0.13781501      -0.00001254       0.00001881      -0.02785255
Cu       2.56679762       5.13359523       1.81500000        3       0.78152354       0.62376871       0.22289041      -0.00085543      -0.00041449      -0.02906177
Cu       5.13359523       5.13359523       1.81500000        3       0.51742836       0.18906146       0.15187714       0.00001218      -0.00620335      -0.04560429
Cu       7.70039285       5.13359523       1.81500000        3       0.78627191       0.78198974       0.87418699       0.00085574      -0.00042778      -0.02888963
Cu       0.00000000       7.70039285       1.81500000        3       0.46851797       0.65859639       0.70254453      -0.00000168       0.00001001      -0.02765623
Cu       2.56679762       7.70039285       1.81500000        3       0.45194737       0.16088520       0.50679782      -0.00086376       0.00044202      -0.02887884
Cu       5.13359523       7.70039285       1.81500000        3       0.43561508       0.30845086       0.80341086       0.00000145       0.00621466      -0.04554943
Cu       7.70039285       7.70039285       1.81500000        3       0.87721660       0.36272469       0.27796788       0.00086395       0.00043385      -0.02886547
Cu       1.28339881       1.28339881       3.63000000        2       0.94830907       0.87398991       0.01966699       0.00081859      -0.00412282       0.02249865
Cu       3.85019642       1.28339881       3.63000000        2       0.81741712       0.77758721       0.84642542       0.00092314      -0.00264899       0.02388483
Cu       6.41699404       1.28339881       3.63000000        2       0.32057862       0.02041646       0.30252105       0.00091522      -0.00121381       0.02579367
Cu       8.98379165       1.28339881       3.63000000        2       0.02084720       0.60320048       0.39051356      -0.00280167      -0.00286857       0.02362904
Cu       1.28339881       3.85019642       3.63000000        2       0.61643150       0.60289060       0.49366326       0.00083191       0.00040892       0.02305734
Cu       3.85019642       3.85019642       3.63000000        2       0.16065603       0.49593249       0.34565171      -0.03432838      -0.06521850      -0.02685546
Cu       6.41699404       3.85019642       3.63000000        2       0.21710704       0.47169058       0.21968148       0.03732110      -0.06512817      -0.02702972
Cu       8.98379165       3.85019642       3.63000000        2       0.27040830       0.08735859       0.47003701      -0.00360203       0.00045106       0.02271180
Cu       1.28339881       6.41699404       3.63000000        2       0.92652716       0.24965842       0.06769491      -0.00440336       0.00358426       0.02106503
Cu       3.85019642       6.41699404       3.63000000        2       0.81700516       0.00606646       0.45106979      -1.96724123       0.00201974      -2.75901747
Cu       6.41699404       6.41699404       3.63000000        2       0.72907044       0.21829417       0.10201907       1.96900138       0.00060598      -2.75716430
Cu       8.98379165       6.41699404       3.63000000        2       0.28576056       0.25608095       0.41792582       0.00251348       0.00219345       0.02247453
Cu       1.28339881       8.98379165       3.63000000        2       0.69327258       0.34010564       0.76130831      -0.00037725       0.00019731       0.02719970
Cu       3.85019642       8.98379165       3.63000000        2       0.23537839       0.82137957       0.80859817      -0.03570562       0.06592468      -0.02305641
Cu       6.41699404       8.98379165       3.63000000        2       0.69593583       0.49308194       0.00106206       0.03577112       0.06594226      -0.02296829
Cu       8.98379165       8.98379165       3.63000000        2       0.36162020       0.41498167       0.11539643       0.00031190       0.00023229       0.02731248
Cu       0.00000000       0.00000000       5.44500000        1       0.79091723       0.76890834       0.19716095       0.00368058      -0.01011029      -0.21648730
Cu       2.56679762       0.00000000       5.44500000        1       0.13984942       0.39058168       0.88276400       0.00825207      -0.02714566      -0.24779053
Cu       5.13359523       0.00000000       5.44500000        1       0.44136273       0.44538023       0.05672648      -0.00030294       0.02501785      -0.20813801
Cu       7.70039285       0.00000000       5.44500000        1       0.29193026       0.83520359       0.41676412      -0.00082843      -0.00131261      -0.20962457
Cu       0.00000000       2.56679762       5.44500000        1       0.94217408       0.46778435       0.50664441       0.13546601       0.13841166      -0.00395747
Cu       2.56679762       2.56679762       5.44500000        1       0.74278040       0.80794784       0.59987590      -0.04151328       0.15046816      -0.08233191
Cu       5.13359523       2.56679762       5.44500000        1       0.79925869       0.77162588       0.93839239      -0.09848226      -0.52724484      -1.59902056
Cu       7.70039285       2.56679762       5.44500000        1       0.05459824       0.48201764       0.94106088       0.01223656      -0.00001601      -0.25631100
Cu       0.00000000       5.13359523       5.44500000        1       0.34068297       0.62593187       0.72304081       0.11738575      -0.07251287      -0.10693035
Cu       2.56679762       5.13359523       5.44500000        1       0.43245793       0.65043141       0.90756008      -0.48585126      -0.31764512      -0.12947793
Cu       5.13359523       5.13359523       5.44500000        1       0.69429726       0.86056678       0.31751593      -0.01111338     -68.99197933      -0.34156402
Cu       7.70039285       5.13359523       5.44500000        1       0.39922038       0.25323885       0.86671849       0.36099428      -0.18168206      -0.28012344
Cu       0.00000000       7.70039285       5.44500000        1       0.19602575       0.58052623       0.69101439       0.00239646      -0.00110186      -0.20176974
Cu       2.56679762       7.70039285       5.44500000        1       0.96353632       0.13478824       0.53002800      -0.39935805       0.19676002      -0.20835094
Cu       5.13359523       7.70039285       5.44500000        1       0.14510506       0.75752436       0.00586790       0.00117279      69.11935689      -0.17543321
Cu       7.70039285       7.70039285       5.44500000        1       0.03196371       0.04985336       0.01846242       0.39534322       0.19301382      -0.20677693
C        0.00000000       2.80000000       7.84500000        0       0.16063442       0.07208592       0.13885085       3.52444854       3.36023553      -0.31031224
C       -0.18239651       4.16085465       7.84529340        0       0.09934939       0.97016473       0.33499619       3.76091331      -2.86006333      -0.25424077
O        1.00934983       4.80965694       7.84505237        0       0.12977296       0.64619689       0.17437634      -0.02815826      -0.36301831      -0.16012208
C        1.99139235       3.83368450       7.84470214        0       0.77162604       0.22420756       0.76469039      -0.11529319      -0.33065343      -0.19657571
C        1.40318044       2.58736551       7.84459703        0       0.95460715       0.68370167       0.69348478      -2.31421838       4.16586482      -0.26885006
C        3.36791757       4.28926521       7.84441929        0       0.25254190       0.71774369       0.16299478      -0.78200973      -3.35784782      -0.18169731
O        4.33490962       3.53331941       7.84464740        0       0.96872591       0.71830250       0.79665852      -9.57704886       2.32909299       3.20746834
H       -0.78545962       2.05237439       7.84506255        0       0.37572453       0.88897728       0.37574290      -2.97953787      -2.84325438       0.30258119
H       -1.06532547       4.79055512       7.84571394        0       0.53136557       0.96045893       0.45303498      -3.43177184       2.34028583       0.28470073
H        1.93944688       1.64422833       7.84420746        0       0.99306956       0.14746816       0.35422229       1.90769832      -3.50644853       0.25679502
H        3.48441075       5.40056810       7.84383821        0       0.06352075       0.74313719       0.71001477       0.40656266       3.36333198       0.26485229
H        5.13359523       6.41699404       5.44500000        0       0.29599798       0.06217062       0.13514662       0.00161706       0.00394857       5.74880116
H        5.22480766       3.31755194       7.52460696        0       0.12852081       0.10640678       0.97809043       9.62737190      -1.99411073      -1.66153970
77
Lattice="10.26719046282867 0.0 0.0 0.0 10.26719046282867 0.0 0.0 0.0 32.0" Properties=species:S:1:pos:R:3:tags:I:1:MACE_forces:R:3:DFT_forces:R:3 slab=Cu100 species=tFUR+2H _ConfigSet_loc=" / 0 / 5" DFT_energy=60.79305898806459 pbc="T T T"
Cu       1.28339881       1.28339881       0.00000000        4       0.18178392       0.27598489       0.95111627      -0.00000043      -0.00000004       0.20645389
Cu       3.85019642       1.28339881       0.00000000        4       0.10611351       0.95216801       0.21610856       0.00000003      -0.00000004       0.20636196
Cu       6.41699404       1.28339881       0.00000000        4       0.85482336       0.01792936       0.12855838       0.00000039      -0.00000002       0.20645406
Cu       8.98379165       1.28339881       0.00000000        4       0.03117930       0.98497507       0.14856621       0.00000002      -0.00000003       0.20645457
Cu       1.28339881       3.85019642       0.00000000        4       0.89348291       0.92250019       0.34438116      -0.00000007       0.00000006       0.20645404
Cu       3.85019642       3.85019642       0.00000000        4       0.33014477       0.76245671       0.13260677       0.00000003       0.00000037       0.20645358
Cu       6.41699404       3.85019642       0.00000000        4       0.32540568       0.75164158       0.22746680       0.00000005       0.00000000       0.20645442
Cu       8.98379165       3.85019642       0.00000000        4       0.03833542       0.03983301       0.02177083       0.00000001       0.00000002       0.20645440
Cu       1.28339881       6.41699404       0.00000000        4       0.15472568       0.01874849       0.90009271      -0.00000007       0.00000001       0.20645445
Cu       3.85019642       6.41699404       0.00000000        4       0.96144414       0.01477575       0.84896506      -0.00000068       0.00000000       0.20645059
Cu       6.41699404       6.41699404       0.00000000        4       0.76000021       0.69216328       0.77494049       0.00000069      -0.00000001       0.20645067
Cu       8.98379165       6.41699404       0.00000000        4       0.56233358       0.41149337       0.57463598       0.00000007      -0.00000000       0.20645453
Cu       1.28339881       8.98379165       0.00000000        4       0.79510309       0.45791834       0.85631542      -0.00000007      -0.00000001       0.20645457
Cu       3.85019642       8.98379165       0.00000000        4       0.09780264       0.35638506       0.83837004       0.00000001      -0.00000032       0.20645395
Cu       6.41699404       8.98379165       0.00000000        4       0.53552043       0.40270737       0.23456155       0.00000004       0.00000005       0.20645450
Cu       8.98379165       8.98379165       0.00000000        4       0.96750031       0.59077893       0.55717624       0.00000003       0.00000003       0.20645463
Cu       0.00000000       0.00000000       1.81500000        3       0.38781298       0.28490166       0.77082483      -0.00006349      -0.00003414      -0.02772284
Cu       2.56679762       0.00000000       1.81500000        3       0.73364910       0.41115810       0.72176020      -0.00244608      -0.00245521      -0.03443680
Cu       5.13359523       0.00000000       1.81500000        3       0.03590403       0.07728476       0.86553015       0.00244779      -0.00223192      -0.03463666
Cu       7.70039285       0.00000000       1.81500000        3       0.14477070       0.88916313       0.99448381       0.00006173      -0.00002075      -0.02770482
Cu       0.00000000       2.56679762       1.81500000        3       0.39686731       0.28740177       0.82926514      -0.00007415       0.00000530      -0.02797058
Cu       2.56679762       2.56679762       1.81500000        3       0.31103859       0.87725298       0.31004767      -0.00243658       0.00242775      -0.03462074
Cu       5.13359523       2.56679762       1.81500000        3       0.48132173       0.05616555       0.73525849       0.00245833       0.00222080      -0.03471494
Cu       7.70039285       2.56679762       1.81500000        3       0.08255262       0.03920829       0.11080610       0.00005237       0.00001467      -0.02773469
Cu       0.00000000       5.13359523       1.81500000        3       0.27073675       0.35975429       0.56938370      -0.00001267       0.00001894      -0.02785274
Cu       2.56679762       5.13359523       1.81500000        3       0.48637282       0.68968133       0.04285581      -0.00087562      -0.00035314      -0.02912005
Cu       5.13359523       5.13359523       1.81500000        3       0.59816277       0.87339589       0.87993878       0.00003240      -0.00614213      -0.04566219
Cu       7.70039285       5.13359523       1.81500000        3       0.34819388       0.41960560       0.15930978       0.00085585      -0.00042766      -0.02888979
Cu       0.00000000       7.70039285       1.81500000        3       0.88279506       0.66355904       0.68314548      -0.00000182       0.00000986      -0.02765644
Cu       2.56679762       7.70039285       1.81500000        3       0.23288949       0.71465314       0.35025924      -0.00088398       0.00038057      -0.02893729
Cu       5.13359523       7.70039285       1.81500000        3       0.46888583       0.98880755       0.34724094       0.00002167       0.00615320      -0.04560786
Cu       7.70039285       7.70039285       1.81500000        3       0.12687952       0.56450861       0.68560250       0.00086409       0.00043370      -0.02886567
Cu       1.28339881       1.28339881       3.63000000        2       0.44327672       0.96414983       0.55397260      -0.11634748      -0.00409823      -0.06075529
Cu       3.85019642       1.28339881       3.63000000        2       0.00978764       0.15458189       0.87925304       0.00113006      -0.00227316     -10.15700276
Cu       6.41699404       1.28339881       3.63000000        2       0.10023020       0.73452725       0.57569588       0.11786412      -0.00085583      -0.05684517
Cu       8.98379165       1.28339881       3.63000000        2       0.77893131       0.68923611       0.48564233      -0.00280210      -0.00286819       0.02356985
Cu       1.28339881       3.85019642       3.63000000        2       0.28096944       0.39884872       0.38272516      -0.00419462       0.00545678       0.01924163
Cu       3.85019642       3.85019642       3.63000000        2       0.90405712       0.58472851       0.09200412      -0.03342361       0.05153073      -0.10711488
Cu       6.41699404       3.85019642       3.63000000        2       0.07441712       0.95049172       0.61826863       0.04141914      -0.06050078      -0.02793977
Cu       8.98379165       3.85019642       3.63000000        2       0.26986125       0.41788677       0.88983028      -0.00361871       0.00044984       0.02272719
Cu       1.28339881       6.41699404       3.63000000        2       0.76507694       0.31234961       0.54412957      -0.00440467       0.00358409       0.02106320
Cu       3.85019642       6.41699404       3.63000000        2       0.75240930       0.66689449       0.31587884      -1.96721542       0.00194903      -2.75898284
Cu       6.41699404       6.41699404       3.63000000        2       0.03908051       0.23535830       0.64021616       1.96897939       0.00055177      -2.75709748
Cu       8.98379165       6.41699404       3.63000000        2       0.31333073       0.66027469       0.05737745       0.00251343       0.00219341       0.02247458
Cu       1.28339881       8.98379165       3.63000000        2       0.68101633       0.14134876       0.91107055      -0.00545204      -0.00487740       0.02331702
Cu       3.85019642       8.98379165       3.63000000        2       0.50919710       0.51726453       0.37077718      -0.03570599      -0.05126621      -0.10634553
Cu       6.41699404       8.98379165       3.63000000        2       0.51953695       0.27534056       0.44697173       0.04084628       0.06086730      -0.02685148
Cu       8.98379165       8.98379165       3.63000000        2       0.32063529       0.56040751       0.25245211       0.00031190       0.00023088       0.02731051
Cu       0.00000000       0.00000000       5.44500000        1       0.72408821       0.42975114       0.28057901      -0.00415015      -0.01245240      -0.21648686
Cu       2.56679762       0.00000000       5.44500000        1       0.11906730       0.51600593       0.45480098      -7.18802780      -7.22325127      -0.24492376
Cu       5.13359523       0.00000000       5.44500000        1       0.37570772       0.79577688       0.72179331       7.19627489      -7.16629640      -0.20230421
Cu       7.70039285       0.00000000       5.44500000        1       0.98988196       0.14670408       0.49590058       0.00673911      -0.00330536      -0.20940590
Cu       0.00000000       2.56679762       5.44500000        1       0.80998824       0.85382034       0.44317491       0.12772803       0.14076697      -0.00392768
Cu       2.56679762       2.56679762       5.44500000        1       0.29680311       0.34606916       0.32572359      -7.20529119       7.35982188      -0.04694563
Cu       5.13359523       2.56679762       5.44500000        1       0.68519318       0.75554493       0.24120673       7.13790207       7.23645069      -0.03481050
Cu       7.70039285       2.56679762       5.44500000        1       0.27678093       0.22756892       0.61011168      -0.01130699       0.01179329      -0.23013774
Cu       0.00000000       5.13359523       5.44500000        1       0.65679945       0.52334616       0.66984933       0.11733949      -0.07244552      -0.10691174
Cu       2.56679762       5.13359523       5.44500000        1       0.08381609       0.65851264       0.14176604      -0.47759725      -0.31831633      -0.11796857
Cu       5.13359523       5.13359523       5.44500000        1       0.00580369       0.60268367       0.24447182      -0.00962743     -69.17398856      -0.11762949
Cu       7.70039285       5.13359523       5.44500000        1       0.42351692       0.31564050       0.86460630       0.35330793      -0.18721862      -0.27364493
Cu       0.00000000       7.70039285       5.44500000        1       0.23445259       0.63774687       0.90469148       0.00231571      -0.00118271      -0.20176970
Cu       2.56679762       7.70039285       5.44500000        1       0.21700179       0.11832377       0.65573883      -0.40168362       0.18888689      -0.20832650
Cu       5.13359523       7.70039285       5.44500000        1       0.45705939       0.38253958       0.25637656       0.00350344      69.11124163      -0.17529284
Cu       7.70039285       7.70039285       5.44500000        1       0.10450592       0.42736359       0.37220031       0.39541475       0.19291660      -0.20676925
C        0.00000000       2.80000000       7.84500000        0       0.36883601       0.63321958       0.25584863       3.52443041       3.36026987      -0.31027308
C       -0.18239651       4.16085465       7.84529340        0       0.00952901       0.15758976       0.27010881       3.76092610      -2.86006847      -0.25424019
O        1.00934983       4.80965694       7.84505237        0       0.46503025       0.20662109       0.13687701      -0.02746702      -0.36326415      -0.16011467
C        1.99139235       3.83368450       7.84470214        0       0.44869012       0.40201616       0.28495153      -0.08287543      -0.33404388      -0.19633996
C        1.40318044       2.58736551       7.84459703        0       0.97909409       0.63497223       0.08398101      -2.31270075       4.16792794      -0.26700776
C        3.36791757       4.28926521       7.84441929        0       0.66959917       0.25108078       0.26305565       0.17353382      -4.05472062      -0.21360834
O        4.33490962       3.53331941       7.84464740        0       0.89218887       0.23028591       0.57863152      -0.98340164       0.65121609      -0.28931869
H       -0.78545962       2.05237439       7.84506255        0       0.78096678       0.48797151       0.37422918      -2.97950823      -2.84326271       0.30258141
H       -1.06532547       4.79055512       7.84571394        0       0.75322486       0.25224586       0.23466698      -3.43172603       2.34030270       0.28470441
H        1.93944688       1.64422833       7.84420746        0       0.15866140       0.22825343       0.19659761       1.90831378      -3.50672811       0.25581489
H        3.48441075       5.40056810       7.84383821        0       0.83791937       0.21565679       0.11750599       0.40537820       3.36313117       0.26521721
H        5.13359523       6.41699404       5.44500000        0       0.98917997       0.65984592       0.26618557       0.00160974       0.00412180       5.74868139
H        3.85019642       1.28339881       5.44500000        0       0.26638081       0.49450252       0.32744807       0.00074645      -0.00837639      10.53935517
77
Lattice="10.26719046282867 0.0 0.0 0.0 10.26719046282867 0.0 0.0 0.0 32.0" Properties=species:S:1:pos:R:3:tags:I:1:MACE_forces:R:3:DFT_forces:R:3 slab=Cu100 species=tFURao+H _ConfigSet_loc=" / 0 / 11" DFT_energy=53.70744141228506 pbc="T T T"
Cu       1.28339881       1.28339881       0.00000000        4       0.55310919       0.45006102       0.98380191      -0.00000007      -0.00000004       0.20645441
Cu       3.85019642       1.28339881       0.00000000        4       0.40001043       0.09737879       0.70195670      -0.00000068      -0.00000004       0.20645058
Cu       6.41699404       1.28339881       0.00000000        4       0.48283597       0.19684379       0.68974147       0.00000069      -0.00000002       0.20645066
Cu       8.98379165       1.28339881       0.00000000        4       0.09545830       0.28768928       0.29772583       0.00000007      -0.00000003       0.20645450
Cu       1.28339881       3.85019642       0.00000000        4       0.02421808       0.17393570       0.25911122      -0.00000003       0.00000003       0.20645410
Cu       3.85019642       3.85019642       0.00000000        4       0.48751707       0.73000079       0.19788522       0.00000003       0.00000009       0.20645417
Cu       6.41699404       3.85019642       0.00000000        4       0.02904516       0.46518369       0.63988498       0.00000000       0.00000009       0.20645448
Cu       8.98379165       3.85019642       0.00000000        4       0.60689674       0.90423162       0.51297716       0.00000001       0.00000003       0.20645440
Cu       1.28339881       6.41699404       0.00000000        4       0.39082324       0.36682567       0.05797276      -0.00000002       0.00000001       0.20645453
Cu       3.85019642       6.41699404       0.00000000        4       0.34050600       0.40538328       0.14809053       0.00000003       0.00000000       0.20645457
Cu       6.41699404       6.41699404       0.00000000        4       0.55502255       0.63920144       0.08603603      -0.00000001      -0.00000001       0.20645465
Cu       8.98379165       6.41699404       0.00000000        4       0.18321017       0.31550003       0.58857573       0.00000002      -0.00000000       0.20645460
Cu       1.28339881       8.98379165       0.00000000        4       0.54840177       0.31433212       0.06768178      -0.00000002       0.00000002       0.20645463
Cu       3.85019642       8.98379165       0.00000000        4       0.38857973       0.82102378       0.89122793       0.00000001      -0.00000003       0.20645454
Cu       6.41699404       8.98379165       0.00000000        4       0.05546360       0.75086537       0.57336676      -0.00000000      -0.00000003       0.20645456
Cu       8.98379165       8.98379165       0.00000000        4       0.83620031       0.87556242       0.52037546       0.00000003       0.00000002       0.20645463
Cu       0.00000000       0.00000000       1.81500000        3       0.49549742       0.20113459       0.86206425      -0.00000205      -0.00001399      -0.02766450
Cu       2.56679762       0.00000000       1.81500000        3       0.73398997       0.70700572       0.61687948      -0.00086281      -0.00044318      -0.02888207
Cu       5.13359523       0.00000000       1.81500000        3       0.56818999       0.49529035       0.23778512       0.00000144      -0.00621570      -0.04555110
Cu       7.70039285       0.00000000       1.81500000        3       0.79346985       0.68716479       0.49761568       0.00086338      -0.00043478      -0.02886705
Cu       0.00000000       2.56679762       1.81500000        3       0.39377909       0.78067020       0.89906746      -0.00001278      -0.00001486      -0.02791234
Cu       2.56679762       2.56679762       1.81500000        3       0.78426647       0.78909684       0.35892232      -0.00085298       0.00041565      -0.02906718
Cu       5.13359523       2.56679762       1.81500000        3       0.99701496       0.58650595       0.27003000       0.00001204       0.00620469      -0.04562146
Cu       7.70039285       2.56679762       1.81500000        3       0.72708216       0.66966636       0.45639579       0.00085368       0.00042871      -0.02889645
Cu       0.00000000       5.13359523       1.81500000        3       0.75557129       0.58183092       0.82987901      -0.00001254       0.00001886      -0.02785245
Cu       2.56679762       5.13359523       1.81500000        3       0.07123582       0.15141144       0.79660555       0.00000750       0.00001973      -0.02784135
Cu       5.13359523       5.13359523       1.81500000        3       0.60018608       0.05919390       0.19835596       0.00001219       0.00022653      -0.02791909
Cu       7.70039285       5.13359523       1.81500000        3       0.93841046       0.49569459       0.27949625      -0.00000718       0.00000644      -0.02766920
Cu       0.00000000       7.70039285       1.81500000        3       0.84733652       0.84200059       0.91943040      -0.00000168       0.00000995      -0.02765614
Cu       2.56679762       7.70039285       1.81500000        3       0.11919298       0.35833395       0.88685234      -0.00000065       0.00000776      -0.02765816
Cu       5.13359523       7.70039285       1.81500000        3       0.63987012       0.02172348       0.70694134       0.00000145      -0.00021556      -0.02785936
Cu       7.70039285       7.70039285       1.81500000        3       0.05508775       0.87538855       0.20619141       0.00000084      -0.00000041      -0.02764478
Cu       1.28339881       1.28339881       3.63000000        2       0.17668088       0.12092824       0.98964288      -0.00377337      -0.00412277       0.02034460
Cu       3.85019642       1.28339881       3.63000000        2       0.88580559       0.89076207       0.44972313      -1.96729515      -0.00218822      -2.75927637
Cu       6.41699404       1.28339881       3.63000000        2       0.96432201       0.71843437       0.27936546       1.96912479      -0.00073315      -2.75733309
Cu       8.98379165       1.28339881       3.63000000        2       0.62397420       0.06837802       0.68393282       0.00179009      -0.00286802       0.02147576
Cu       1.28339881       3.85019642       3.63000000        2       0.79632398       0.03084006       0.11129743       0.00081770       0.00092491       0.02300970
Cu       3.85019642       3.85019642       3.63000000        2       0.93613355       0.58141050       0.69998666      -0.03332159       0.06600303      -0.02429045
Cu       6.41699404       3.85019642       3.63000000        2       0.90534372       0.24455598       0.22167839       0.03632601       0.06610729      -0.02403423
Cu       8.98379165       3.85019642       3.63000000        2       0.20758688       0.34435874       0.12603222      -0.00361930       0.00097603       0.02272882
Cu       1.28339881       6.41699404       3.63000000        2       0.23521800       0.01679926       0.19829144       0.00017698       0.00359464       0.02319447
Cu       3.85019642       6.41699404       3.63000000        2       0.95669791       0.05656998       0.98780351       0.00127274       0.00208056       0.02477937
Cu       6.41699404       6.41699404       3.63000000        2       0.40093213       0.32875257       0.95430994       0.00050294       0.00064020       0.02671363
Cu       8.98379165       6.41699404       3.63000000        2       0.41190754       0.95966895       0.28453887      -0.00207905       0.00219356       0.02462840
Cu       1.28339881       8.98379165       3.63000000        2       0.69382606       0.11551202       0.11592784      -0.00037725      -0.00033061       0.02719970
Cu       3.85019642       8.98379165       3.63000000        2       0.21750355       0.66933241       0.61796851      -0.03570533      -0.06597175      -0.02305614
Cu       6.41699404       8.98379165       3.63000000        2       0.76218945       0.98887305       0.98385892       0.03577084      -0.06595429      -0.02296789
Cu       8.98379165       8.98379165       3.63000000        2       0.12252887       0.61968469       0.27432790       0.00031190      -0.00029564       0.02731248
Cu       0.00000000       0.00000000       5.44500000        1       0.61414741       0.50562516       0.69877924       0.00368018      -0.01024489      -0.21648775
Cu       2.56679762       0.00000000       5.44500000        1       0.00804898       0.53285059       0.20709196      -0.38593388      -0.22064716      -0.24753900
Cu       5.13359523       0.00000000       5.44500000        1       0.59875195       0.37153814       0.40394865      -0.00025490     -69.11689067      -0.17245128
Cu       7.70039285       0.00000000       5.44500000        1       0.31167486       0.46667803       0.49078975       0.39334789      -0.19480312      -0.20937208
Cu       0.00000000       2.56679762       5.44500000        1       0.27621654       0.17829184       0.91363419       0.13521983       0.13840167      -0.00419554
Cu       2.56679762       2.56679762       5.44500000        1       0.43884367       0.70331393       0.58572711      -0.40924976       0.34411670      -0.07024963
Cu       5.13359523       2.56679762       5.44500000        1       0.02588886       0.51132259       0.65124062      -0.05282948      69.18203730      -0.01795729
Cu       7.70039285       2.56679762       5.44500000        1       0.22937382       0.31013879       0.61516604       0.37512046       0.20327333      -0.23014255
Cu       0.00000000       5.13359523       5.44500000        1       0.18277290       0.32045891       0.73718728       0.11676348      -0.07222254      -0.10749060
Cu       2.56679762       5.13359523       5.44500000        1       0.30847352       0.29023654       0.29972086      -0.10512846      -0.11207554      -0.19630391
Cu       5.13359523       5.13359523       5.44500000        1       0.44802210       0.92183065       0.76644529       0.00164874      -0.02820922      -0.17161707
Cu       7.70039285       5.13359523       5.44500000        1       0.67651152       0.94070245       0.20791422      -0.04098684       0.00655591      -0.27371969
Cu       0.00000000       7.70039285       5.44500000        1       0.84225578       0.76670128       0.49439413       0.00237327      -0.00121461      -0.20178649
Cu       2.56679762       7.70039285       5.44500000        1       0.11568949       0.97617875       0.92152539      -0.00522632       0.00390457      -0.20932590
Cu       5.13359523       7.70039285       5.44500000        1       0.10905926       0.97592009       0.06916728       0.00141533      -0.02731767      -0.20818645
Cu       7.70039285       7.70039285       5.44500000        1       0.01828003       0.24227009       0.95554577       0.00089698      -0.00084119      -0.20680656
C        0.00000000       2.80000000       7.84500000        0       0.32754933       0.52242931       0.41583223       3.52294742       3.35955091      -0.31058313
C       -0.18239651       4.16085465       7.84529340        0       0.47975990       0.67893388       0.59091100       3.75839375      -2.86016460      -0.25466534
O        1.00934983       4.80965694       7.84505237        0       0.63499905       0.68620430       0.03047747      -0.09563867      -0.34596489      -0.18039319
C        1.99139235       3.83368450       7.84470214        0       0.60740184       0.93839644       0.08858479      -1.12140399      -0.68065474      -0.73839095
C        1.40318044       2.58736551       7.84459703        0       0.21356718       0.15411345       0.45034150      -2.34254463       4.13692275      -0.28009025
C        3.36791757       4.28926521       7.84441929        0       0.41660611       0.30136492       0.11128266      -0.01058434      -3.92536092     -15.04202269
O        4.33490962       3.53331941       7.84464740        0       0.61413513       0.29745250       0.85267301       0.56993844      -0.56536342      -1.35772607
H       -0.78545962       2.05237439       7.84506255        0       0.32813274       0.09298501       0.47935667      -2.97950769      -2.84325843       0.30258255
H       -1.06532547       4.79055512       7.84571394        0       0.94173197       0.44608252       0.87966024      -3.43170214       2.34029873       0.28471119
H        1.93944688       1.64422833       7.84420746        0       0.63836855       0.72707288       0.07331531       1.90811919      -3.50563903       0.25709174
H        3.36791757       4.28926521       8.74441929        0       0.07602420       0.09976468       0.55485655      -0.27693247       0.88445718      16.83232208
H        3.48441075       5.40056810       7.84383821        0       0.04230002       0.74130700       0.46365301       0.46574203       3.91874970       0.03667643
H        5.13359523       1.28339881       5.44500000        0       0.15188019       0.66510597       0.26850426       0.00239372      -0.00745183       5.74498929
77
Lattice="10.26719046282867 0.0 0.0 0.0 10.26719046282867 0.0 0.0 0.0 32.0" Properties=species:S:1:pos:R:3:tags:I:1:MACE_forces:R:3:DFT_forces:R:3 slab=Cu100 species=tFUR+2H _ConfigSet_loc=" / 0 / 2" DFT_energy=84.89342831775362 pbc="T T T"
Cu       1.28339881       1.28339881       0.00000000        4       0.65187509       0.07616187       0.16320887      -0.00000002      -0.00000004       0.20645448
Cu       3.85019642       1.28339881       0.00000000        4       0.94417064       0.33467653       0.50912523      -0.00000003      -0.00000005       0.20645447
Cu       6.41699404       1.28339881       0.00000000        4       0.18453906       0.61013858       0.84903863      -0.00000001      -0.00000073       0.20645066
Cu       8.98379165       1.28339881       0.00000000        4       0.60901181       0.18591554       0.44129753       0.00000008      -0.00000004       0.20645448
Cu       1.28339881       3.85019642       0.00000000        4       0.29551957       0.96721599       0.61129689      -0.00000004      -0.00000004       0.20645402
Cu       3.85019642       3.85019642       0.00000000        4       0.36537638       0.45403831       0.35733710      -0.00000001      -0.00000003       0.20645407
Cu       6.41699404       3.85019642       0.00000000        4       0.04246931       0.83060401       0.32318898      -0.00000000       0.00000072       0.20645058
Cu       8.98379165       3.85019642       0.00000000        4       0.77334744       0.67047631       0.80509623       0.00000006       0.00000003       0.20645431
Cu       1.28339881       6.41699404       0.00000000        4       0.76193369       0.88310880       0.20696590      -0.00000072       0.00000001       0.20645055
Cu       3.85019642       6.41699404       0.00000000        4       0.10979365       0.44334600       0.22221458       0.00000073       0.00000001       0.20645058
Cu       6.41699404       6.41699404       0.00000000        4       0.23029056       0.82512256       0.24795518       0.00000004       0.00000004       0.20645450
Cu       8.98379165       6.41699404       0.00000000        4       0.57189900       0.23546570       0.18020552      -0.00000003       0.00000000       0.20645452
Cu       1.28339881       8.98379165       0.00000000        4       0.10794973       0.70948361       0.66153100      -0.00000003       0.00000009       0.20645454
Cu       3.85019642       8.98379165       0.00000000        4       0.40185506       0.76701785       0.73521250       0.00000003       0.00000009       0.20645453
Cu       6.41699404       8.98379165       0.00000000        4       0.28755703       0.95144428       0.15413631      -0.00000001      -0.00000002       0.20645457
Cu       8.98379165       8.98379165       0.00000000        4       0.67158354       0.01733841       0.36005690       0.00000003       0.00000003       0.20645462
Cu       0.00000000       0.00000000       1.81500000        3       0.42730137       0.59561974       0.41904340      -0.00000199      -0.00001387      -0.02766999
Cu       2.56679762       0.00000000       1.81500000        3       0.90242790       0.47374606       0.05214263       0.00000027       0.00020592      -0.02787627
Cu       5.13359523       0.00000000       1.81500000        3       0.43556787       0.44976612       0.56376467      -0.00042885      -0.00086705      -0.02887193
Cu       7.70039285       0.00000000       1.81500000        3       0.13516989       0.30940094       0.41357537       0.00043053      -0.00086758      -0.02886699
Cu       0.00000000       2.56679762       1.81500000        3       0.40268999       0.06717945       0.37768153       0.00020412      -0.00001684      -0.02812975
Cu       2.56679762       2.56679762       1.81500000        3       0.47755982       0.47696111       0.07296150      -0.00020668      -0.00023436      -0.02827203
Cu       5.13359523       2.56679762       1.81500000        3       0.27868288       0.34009065       0.57428049      -0.00619779      -0.00000896      -0.04562409
Cu       7.70039285       2.56679762       1.81500000        3       0.98864800       0.59630298       0.05665441       0.00620032      -0.00000355      -0.04557734
Cu       0.00000000       5.13359523       1.81500000        3       0.87493879       0.49878261       0.67554804      -0.00087458      -0.00041145      -0.02907729
Cu       2.56679762       5.13359523       1.81500000        3       0.88967331       0.75411232       0.87223651       0.00000743      -0.00619227      -0.04572378
Cu       5.13359523       5.13359523       1.81500000        3       0.22502980       0.30777678       0.23061837       0.00044400       0.00044055      -0.03014974
Cu       7.70039285       5.13359523       1.81500000        3       0.72746267       0.42470673       0.34595929       0.00042311       0.00086942      -0.02888997
Cu       0.00000000       7.70039285       1.81500000        3       0.83102442       0.65809599       0.47762370      -0.00086670       0.00044212      -0.02887955
Cu       2.56679762       7.70039285       1.81500000        3       0.83862215       0.17755133       0.23104519       0.00000132       0.00622067      -0.04555981
Cu       5.13359523       7.70039285       1.81500000        3       0.93828454       0.01131363       0.19653865       0.00086643       0.00043542      -0.02886793
Cu       7.70039285       7.70039285       1.81500000        3       0.75454769       0.66414246       0.22659020      -0.00000108       0.00000167      -0.02764217
Cu       1.28339881       1.28339881       3.63000000        2       0.70688002       0.65122627       0.20461611       0.00080042      -0.00414048       0.02244428
Cu       3.85019642       1.28339881       3.63000000        2       0.55463554       0.72194874       0.95699183      -0.06463059      -0.03793653      -0.02588515
Cu       6.41699404       1.28339881       3.63000000        2       0.91707789       0.04777867       0.82185001       0.00054412      -1.96931751      -2.75731722
Cu       8.98379165       1.28339881       3.63000000        2       0.89831860       0.93546011       0.17430474       0.06313065      -0.03861702      -0.02693170
Cu       1.28339881       3.85019642       3.63000000        2       0.47942299       0.55257748       0.40418014      -0.03417428      -0.06493414      -0.02686586
Cu       3.85019642       3.85019642       3.63000000        2       0.15961624       0.71135824       0.63859616      -0.02810841      -0.02975909      -0.07393076
Cu       6.41699404       3.85019642       3.63000000        2       0.10639126       0.60786325       0.36455860       0.00096533       1.96848263      -2.75758042
Cu       8.98379165       3.85019642       3.63000000        2       0.97456088       0.59265298       0.43608187       0.06149957       0.03619778      -0.02783137
Cu       1.28339881       6.41699404       3.63000000        2       0.35187958       0.71684798       0.33016778      -1.96813993       0.00325945      -2.76038358
Cu       3.85019642       6.41699404       3.63000000        2       0.65062365       0.53887777       0.78680438       1.96934670       0.00212015      -2.75887969
Cu       6.41699404       6.41699404       3.63000000        2       0.93680420       0.07371025       0.55207261       0.00507248       0.00523157       0.02243746
Cu       8.98379165       6.41699404       3.63000000        2       0.51396896       0.06355186       0.37966277      -0.00640649       0.00260114       0.02228118
Cu       1.28339881       8.98379165       3.63000000        2       0.35642312       0.87463851       0.45851322      -0.03573160       0.06588042      -0.02318706
Cu       3.85019642       8.98379165       3.63000000        2       0.00787513       0.04668365       0.10298947       0.03555797       0.06551589      -0.02324741
Cu       6.41699404       8.98379165       3.63000000        2       0.89233133       0.42500887       0.06519744       0.00041460      -0.00433421       0.02526753
Cu       8.98379165       8.98379165       3.63000000        2       0.84748025       0.47352707       0.54628348      -0.00024082      -0.00017596       0.02711841
Cu       0.00000000       0.00000000       5.44500000        1       0.32493881       0.17691607       0.57519770       0.00409850      -0.00969114      -0.21648709
Cu       2.56679762       0.00000000       5.44500000        1       0.31457288       0.43152727       0.51086450       0.00810874       0.00034010      -0.24753459
Cu       5.13359523       0.00000000       5.44500000        1       0.60369233       0.64855803       0.49761277      -0.19146384      -0.39326911      -0.20488545
Cu       7.70039285       0.00000000       5.44500000        1       0.44736430       0.92029400       0.39273856       0.19009494      -0.39802408      -0.20937128
Cu       0.00000000       2.56679762       5.44500000        1       0.93550814       0.72894155       0.72465009       0.16411817       0.13690545      -0.00392761
Cu       2.56679762       2.56679762       5.44500000        1       0.68764572       0.78558030       0.88440440      -0.03697353       0.13558217      -0.04928570
Cu       5.13359523       2.56679762       5.44500000        1       0.56774098       0.74465243       0.61435280     -69.17635916       0.06758094      -0.00633074
Cu       7.70039285       2.56679762       5.44500000        1       0.92153608       0.17014214       0.28642018      69.09738374       0.01096072      -0.19779660
Cu       0.00000000       5.13359523       5.44500000        1       0.46803759       0.96576062       0.99184649      -0.27597023      -0.26359327      -0.10687883
Cu       2.56679762       5.13359523       5.44500000        1       0.25538575       0.63885356       0.69242002      -0.08132029     -69.25478093      -0.08916499
Cu       5.13359523       5.13359523       5.44500000        1       0.98590026       0.73542570       0.20201316       0.19041582       0.13902053      -0.14911420
Cu       7.70039285       5.13359523       5.44500000        1       0.09656911       0.36453659       0.88817720       0.15014694       0.40040386      -0.27364486
Cu       0.00000000       7.70039285       5.44500000        1       0.20060389       0.53958230       0.22607717      -0.39315820       0.19106495      -0.20173455
Cu       2.56679762       7.70039285       5.44500000        1       0.65590105       0.02023106       0.10596307      -0.00377996      69.12346286      -0.17588636
Cu       5.13359523       7.70039285       5.44500000        1       0.28904395       0.45846365       0.39409747       0.39658026       0.19430436      -0.20776072
Cu       7.70039285       7.70039285       5.44500000        1       0.43241958       0.29070188       0.89799389      -0.00008969       0.00082571      -0.20680437
C        0.00000000       2.80000000       7.84500000        0       0.38576811       0.90478673       0.69125707       3.52469605       3.36022664      -0.31013316
C       -0.18239651       4.16085465       7.84529340        0       0.82817980       0.36702363       0.36051833       3.76072914      -2.86027081      -0.25385916
O        1.00934983       4.80965694       7.84505237        0       0.62548581       0.74244476       0.42997495      -0.03329179      -0.36913428      -0.15109436
C        1.99139235       3.83368450       7.84470214        0       0.64456466       0.54722069       0.17671981      -0.08321509      -0.33847285      -0.19330220
C        1.40318044       2.58736551       7.84459703        0       0.35495515       0.93526595       0.93229543      -2.31083733       4.16675958      -0.26879847
C        3.36791757       4.28926521       7.84441929        0       0.63983889       0.59753597       0.12965510       0.17818366      -4.06114262      -0.20764069
O        4.33490962       3.53331941       7.84464740        0       0.23891685       0.77613403       0.84582062      -0.99049959       0.65016509      -0.28798008
H       -0.78545962       2.05237439       7.84506255        0       0.98215157       0.01235515       0.43570633      -2.97960848      -2.84324643       0.30250816
H       -1.06532547       4.79055512       7.84571394        0       0.77540380       0.80046945       0.05877151      -3.43173718       2.34028420       0.28467519
H        1.93944688       1.64422833       7.84420746        0       0.19916667       0.33795103       0.15353078       1.90750067      -3.50654075       0.25681186
H        3.48441075       5.40056810       7.84383821        0       0.41016203       0.93671775       0.00785678       0.40379031       3.36388182       0.26381766
H        2.56679762       6.41699404       5.44500000        0       0.96953814       0.14322171       0.83287863       0.00461938       0.01965091       5.73303295
H        6.41699404       2.56679762       5.44500000        0       0.80773807       0.13713862       0.23549579       0.00793840      -0.00332763       5.74348475
77
Lattice="10.26719046282867 0.0 0.0 0.0 10.26719046282867 0.0 0.0 0.0 32.0" Properties=species:S:1:pos:R:3:tags:I:1:MACE_forces:R:3:DFT_forces:R:3 slab=Cu100 species=tFUR+2H _ConfigSet_loc=" / 0 / 3" DFT_energy=60.800847512068636 pbc="T T T"
Cu       1.28339881       1.28339881       0.00000000        4       0.33504226       0.31077157       0.34834984      -0.00000002      -0.00000004       0.20645448
Cu       3.85019642       1.28339881       0.00000000        4       0.65735198       0.25781850       0.52057597      -0.00000001      -0.00000008       0.20645450
Cu       6.41699404       1.28339881       0.00000000        4       0.55846183       0.86675094       0.70572907      -0.00000001      -0.00000043       0.20645406
Cu       8.98379165       1.28339881       0.00000000        4       0.40834111       0.20625905       0.54741110       0.00000006      -0.00000007       0.20645451
Cu       1.28339881       3.85019642       0.00000000        4       0.56601639       0.66281744       0.34937506      -0.00000004      -0.00000004       0.20645401
Cu       3.85019642       3.85019642       0.00000000        4       0.59178610       0.43915362       0.63464699      -0.00000035      -0.00000004       0.20645358
Cu       6.41699404       3.85019642       0.00000000        4       0.56615282       0.03463618       0.83801638      -0.00000000       0.00000002       0.20636196
Cu       8.98379165       3.85019642       0.00000000        4       0.43189835       0.62979113       0.01884162       0.00000041       0.00000002       0.20645382
Cu       1.28339881       6.41699404       0.00000000        4       0.77208121       0.61962507       0.66749587      -0.00000072       0.00000001       0.20645055
Cu       3.85019642       6.41699404       0.00000000        4       0.50586388       0.40349205       0.22859694       0.00000069       0.00000005       0.20645053
Cu       6.41699404       6.41699404       0.00000000        4       0.80365345       0.21498808       0.90584905       0.00000004       0.00000040       0.20645399
Cu       8.98379165       6.41699404       0.00000000        4       0.67036258       0.69433351       0.69618302       0.00000001       0.00000004       0.20645446
Cu       1.28339881       8.98379165       0.00000000        4       0.23529632       0.77359853       0.95414443      -0.00000003       0.00000009       0.20645454
Cu       3.85019642       8.98379165       0.00000000        4       0.60245590       0.67279041       0.49751785       0.00000003       0.00000009       0.20645454
Cu       6.41699404       8.98379165       0.00000000        4       0.38974998       0.64862921       0.70229595      -0.00000001       0.00000003       0.20645464
Cu       8.98379165       8.98379165       0.00000000        4       0.95338192       0.07724333       0.21099988       0.00000002       0.00000003       0.20645463
Cu       0.00000000       0.00000000       1.81500000        3       0.21213919       0.82382981       0.75985117      -0.00000387      -0.00001205      -0.02766740
Cu       2.56679762       0.00000000       1.81500000        3       0.81277210       0.02707322       0.53066716       0.00000212       0.00020771      -0.02787374
Cu       5.13359523       0.00000000       1.81500000        3       0.99012534       0.16500289       0.45138039      -0.00001681      -0.00006380      -0.02770742
Cu       7.70039285       0.00000000       1.81500000        3       0.49224322       0.23660540       0.07097148       0.00001853      -0.00006401      -0.02770202
Cu       0.00000000       2.56679762       1.81500000        3       0.60430780       0.68707050       0.88807370       0.00004681      -0.00003706      -0.02797333
Cu       2.56679762       2.56679762       1.81500000        3       0.93745435       0.70059134       0.79903549      -0.00004972      -0.00025458      -0.02811611
Cu       5.13359523       2.56679762       1.81500000        3       0.48406126       0.70452560       0.65750877      -0.00243246      -0.00245531      -0.03450315
Cu       7.70039285       2.56679762       1.81500000        3       0.32007605       0.08740410       0.20420339       0.00243534      -0.00244992      -0.03444897
Cu       0.00000000       5.13359523       1.81500000        3       0.16776151       0.90836921       0.71153857      -0.00081516      -0.00039319      -0.02913295
Cu       2.56679762       5.13359523       1.81500000        3       0.69377137       0.01064376       0.63247187      -0.00005201      -0.00617398      -0.04577946
Cu       5.13359523       5.13359523       1.81500000        3       0.95524422       0.13606765       0.59154290      -0.00157011       0.00202222      -0.03570188
Cu       7.70039285       5.13359523       1.81500000        3       0.17073786       0.60120830       0.52796704       0.00243724       0.00245077      -0.03444203
Cu       0.00000000       7.70039285       1.81500000        3       0.28799389       0.19548920       0.88859838      -0.00086656       0.00044227      -0.02887975
Cu       2.56679762       7.70039285       1.81500000        3       0.58243110       0.98609061       0.71914822       0.00000118       0.00622082      -0.04556001
Cu       5.13359523       7.70039285       1.81500000        3       0.49756941       0.62168240       0.09609704       0.00084626       0.00049685      -0.02892625
Cu       7.70039285       7.70039285       1.81500000        3       0.29779970       0.91222434       0.15382772       0.00001908       0.00006312      -0.02770052
Cu       1.28339881       1.28339881       3.63000000        2       0.23847077       0.50754378       0.45259993       0.00079988      -0.00412239       0.02246990
Cu       3.85019642       1.28339881       3.63000000        2       0.80323110       0.70231202       0.91300965      -0.00388120      -0.00737159       0.02063914
Cu       6.41699404       1.28339881       3.63000000        2       0.06216384       0.32815835       0.79078200       0.00065406      -0.11804723      -0.05681607
Cu       8.98379165       1.28339881       3.63000000        2       0.72718078       0.63324944       0.78602605       0.00227186      -0.00794234       0.01974782
Cu       1.28339881       3.85019642       3.63000000        2       0.21137234       0.56718678       0.56008911      -0.03417479      -0.06495362      -0.02689797
Cu       3.85019642       3.85019642       3.63000000        2       0.62201981       0.62793710       0.66687097      -0.07946923      -0.06539264      -0.10680394
Cu       6.41699404       3.85019642       3.63000000        2       0.56411421       0.40033825       0.65121995       0.00106955       0.00002772     -10.15536668
Cu       8.98379165       3.85019642       3.63000000        2       0.33978737       0.85932029       0.22111908       0.11275670       0.00044871      -0.06055743
Cu       1.28339881       6.41699404       3.63000000        2       0.39119982       0.53061054       0.02598011      -1.96813990       0.00326084      -2.76038552
Cu       3.85019642       6.41699404       3.63000000        2       0.21676381       0.12220216       0.92306032       1.96454182       0.00678107      -2.76255984
Cu       6.41699404       6.41699404       3.63000000        2       0.64379781       0.65499570       0.17930798       0.00506691       0.11782388      -0.05868834
Cu       8.98379165       6.41699404       3.63000000        2       0.58442587       0.87427341       0.96858613      -0.00159607       0.00726726       0.01859317
Cu       1.28339881       8.98379165       3.63000000        2       0.44985662       0.03783064       0.27361271      -0.03573160       0.06588043      -0.02318705
Cu       3.85019642       8.98379165       3.63000000        2       0.25015093       0.36066566       0.63314448       0.03582033       0.06592358      -0.02305555
Cu       6.41699404       8.98379165       3.63000000        2       0.01313141       0.50919124       0.97885607       0.00041477       0.00025804       0.02736158
Cu       8.98379165       8.98379165       3.63000000        2       0.11396743       0.46467220       0.76915280      -0.00050335       0.00023230       0.02731051
Cu       0.00000000       0.00000000       5.44500000        1       0.79102164       0.17164997       0.52816814       0.00264480      -0.00865607      -0.21648719
Cu       2.56679762       0.00000000       5.44500000        1       0.85879670       0.74962368       0.96426686       0.00955681       0.00136954      -0.24753470
Cu       5.13359523       0.00000000       5.44500000        1       0.20786695       0.05435848       0.32884483      -0.00149625      -0.00578685      -0.20492018
Cu       7.70039285       0.00000000       5.44500000        1       0.27095309       0.63897938       0.12191766       0.00013298      -0.01032753      -0.20940600
Cu       0.00000000       2.56679762       5.44500000        1       0.29603934       0.46045772       0.36605970       0.14224195       0.13456215      -0.00392732
Cu       2.56679762       2.56679762       5.44500000        1       0.86774096       0.95856043       0.18189648      -0.01531704       0.13323911      -0.04928559
Cu       5.13359523       2.56679762       5.44500000        1       0.23455046       0.72385301       0.86280424      -7.25420553      -7.12875238      -0.03481139
Cu       7.70039285       2.56679762       5.44500000        1       0.26447915       0.45548728       0.44488050       7.17631770      -7.18559368      -0.22753402
Cu       0.00000000       5.13359523       5.44500000        1       0.06545915       0.64420269       0.39831242      -0.26967370      -0.26236582      -0.10687844
Cu       2.56679762       5.13359523       5.44500000        1       0.26441767       0.36295911       0.53468824      -0.08761098     -69.25354782      -0.08916464
Cu       5.13359523       5.13359523       5.44500000        1       0.80344162       0.76990677       0.22108168      -6.81386847       6.94033744      -0.14660494
Cu       7.70039285       5.13359523       5.44500000        1       0.26712470       0.51272157       0.42954688       7.15439752       7.20144924      -0.27107306
Cu       0.00000000       7.70039285       5.44500000        1       0.16093430       0.35311741       0.34401049      -0.39307764       0.19114573      -0.20173454
Cu       2.56679762       7.70039285       5.44500000        1       0.71892708       0.75592578       0.99002106      -0.00386022      69.12354335      -0.17588636
Cu       5.13359523       7.70039285       5.44500000        1       0.66271926       0.16474905       0.20787118       0.39437067       0.20212384      -0.20776025
Cu       7.70039285       7.70039285       5.44500000        1       0.26962074       0.65125195       0.22880110       0.00211960       0.00865639      -0.20680390
C        0.00000000       2.80000000       7.84500000        0       0.41765689       0.94648672       0.38994179       3.52456467       3.36018598      -0.31022807
C       -0.18239651       4.16085465       7.84529340        0       0.68688129       0.49207924       0.55291744       3.76082071      -2.86031597      -0.25380521
O        1.00934983       4.80965694       7.84505237        0       0.50890609       0.49306141       0.90414863      -0.03328992      -0.36913448      -0.15109372
C        1.99139235       3.83368450       7.84470214        0       0.67423495       0.13796331       0.02667001      -0.08321477      -0.33848252      -0.19330412
C        1.40318044       2.58736551       7.84459703        0       0.23627819       0.65508495       0.28816835      -2.31083539       4.16675951      -0.26880151
C        3.36791757       4.28926521       7.84441929        0       0.56444699       0.76892799       0.37313358       0.17759508      -4.06126066      -0.20719855
O        4.33490962       3.53331941       7.84464740        0       0.62947173       0.28431696       0.09140792      -0.99178973       0.64561669      -0.28685895
H       -0.78545962       2.05237439       7.84506255        0       0.14707435       0.13491842       0.75951047      -2.97954316      -2.84324372       0.30255856
H       -1.06532547       4.79055512       7.84571394        0       0.80600810       0.18333271       0.88101765      -3.43184371       2.34026171       0.28458420
H        1.93944688       1.64422833       7.84420746        0       0.49665765       0.90825511       0.71059130       1.90749771      -3.50654130       0.25681344
H        3.48441075       5.40056810       7.84383821        0       0.58742725       0.26772203       0.03719459       0.40383808       3.36386011       0.26377869
H        2.56679762       6.41699404       5.44500000        0       0.42976724       0.06869016       0.80204445       0.00463145       0.01964329       5.73303295
H        6.41699404       3.85019643       5.44500000        0       0.19203296       0.24491178       0.03875435       0.00899713       0.00118080      10.53747729
77
Lattice="10.26719046282867 0.0 0.0 0.0 10.26719046282867 0.0 0.0 0.0 32.0" Properties=species:S:1:pos:R:3:tags:I:1:MACE_forces:R:3:DFT_forces:R:3 slab=Cu100 species=tFUR+2H _ConfigSet_loc=" / 0 / 4" DFT_energy=84.89169977159094 pbc="T T T"
Cu       1.28339881       1.28339881       0.00000000        4       0.75938397       0.57115849       0.05289321      -0.00000002      -0.00000004       0.20645448
Cu       3.85019642       1.28339881       0.00000000        4       0.34656368       0.24871328       0.28595836       0.00000002      -0.00000004       0.20645456
Cu       6.41699404       1.28339881       0.00000000        4       0.98453753       0.94781356       0.96366394      -0.00000001      -0.00000008       0.20645457
Cu       8.98379165       1.28339881       0.00000000        4       0.48339215       0.19145524       0.32645782       0.00000003      -0.00000003       0.20645457
Cu       1.28339881       3.85019642       0.00000000        4       0.82953926       0.33930238       0.58502098      -0.00000004      -0.00000004       0.20645402
Cu       3.85019642       3.85019642       0.00000000        4       0.19757261       0.48025514       0.10650619      -0.00000001      -0.00000005       0.20645407
Cu       6.41699404       3.85019642       0.00000000        4       0.93334960       0.47822839       0.29625452      -0.00000000      -0.00000069       0.20645058
Cu       8.98379165       3.85019642       0.00000000        4       0.01948385       0.06629266       0.73942128       0.00000006       0.00000001       0.20645431
Cu       1.28339881       6.41699404       0.00000000        4       0.24675898       0.65894592       0.58087662      -0.00000072       0.00000001       0.20645055
Cu       3.85019642       6.41699404       0.00000000        4       0.91037228       0.93541529       0.36867633       0.00000067       0.00000001       0.20645050
Cu       6.41699404       6.41699404       0.00000000        4       0.78583890       0.47484096       0.43664763       0.00000004       0.00000070       0.20645060
Cu       8.98379165       6.41699404       0.00000000        4       0.37841977       0.23251495       0.57822157       0.00000003       0.00000001       0.20645443
Cu       1.28339881       8.98379165       0.00000000        4       0.62410868       0.91451270       0.64961824      -0.00000003       0.00000009       0.20645454
Cu       3.85019642       8.98379165       0.00000000        4       0.20965110       0.11568462       0.63771516       0.00000003       0.00000010       0.20645453
Cu       6.41699404       8.98379165       0.00000000        4       0.19919768       0.65926399       0.64447229      -0.00000001       0.00000009       0.20645457
Cu       8.98379165       8.98379165       0.00000000        4       0.69929964       0.26544353       0.44251779       0.00000003       0.00000004       0.20645462
Cu       0.00000000       0.00000000       1.81500000        3       0.00625525       0.07975042       0.83478393      -0.00000402      -0.00001190      -0.02766720
Cu       2.56679762       0.00000000       1.81500000        3       0.70617117       0.86461334       0.88682786       0.00000226       0.00020785      -0.02787354
Cu       5.13359523       0.00000000       1.81500000        3       0.43878969       0.18279387       0.45056703       0.00000335      -0.00000238      -0.02764912
Cu       7.70039285       0.00000000       1.81500000        3       0.22931215       0.80444719       0.15250223      -0.00000163      -0.00000256      -0.02764368
Cu       0.00000000       2.56679762       1.81500000        3       0.01645819       0.33301614       0.72685050      -0.00001261      -0.00001881      -0.02791768
Cu       2.56679762       2.56679762       1.81500000        3       0.87714654       0.07069309       0.63375397       0.00000969      -0.00023630      -0.02806047
Cu       5.13359523       2.56679762       1.81500000        3       0.72995812       0.08872207       0.55546060      -0.00041835      -0.00087378      -0.02895146
Cu       7.70039285       2.56679762       1.81500000        3       0.68009885       0.28605624       0.03438049       0.00042123      -0.00086859      -0.02889697
Cu       0.00000000       5.13359523       1.81500000        3       0.40457915       0.64430312       0.72180275      -0.00065784      -0.00041342      -0.02928939
Cu       2.56679762       5.13359523       1.81500000        3       0.51630250       0.24616682       0.17177335      -0.00020910      -0.00619420      -0.04593558
Cu       5.13359523       5.13359523       1.81500000        3       0.99850079       0.36849519       0.45081061      -0.00533540      -0.00042412      -0.04682581
Cu       7.70039285       5.13359523       1.81500000        3       0.06189973       0.75112576       0.41822259       0.00620230       0.00000440      -0.04557069
Cu       0.00000000       7.70039285       1.81500000        3       0.90501976       0.76436991       0.59418137      -0.00086468       0.00044409      -0.02888234
Cu       2.56679762       7.70039285       1.81500000        3       0.72404064       0.69304044       0.52627899      -0.00000068       0.00622262      -0.04556256
Cu       5.13359523       7.70039285       1.81500000        3       0.22410035       0.97481397       0.42621704       0.00043423       0.00130024      -0.03009095
Cu       7.70039285       7.70039285       1.81500000        3       0.80395673       0.47073746       0.86070135       0.00043109       0.00086671      -0.02886551
Cu       1.28339881       1.28339881       3.63000000        2       0.50829610       0.00119943       0.94694371       0.00079983      -0.00412101       0.02247183
Cu       3.85019642       1.28339881       3.63000000        2       0.30400049       0.39114562       0.18077248       0.00092009      -0.00271439       0.02431422
Cu       6.41699404       1.28339881       3.63000000        2       0.92991890       0.04933138       0.94541469       0.00066294      -0.00545891       0.02430428
Cu       8.98379165       1.28339881       3.63000000        2       0.94023538       0.02611632       0.75979088      -0.00253827      -0.00327651       0.02343542
Cu       1.28339881       3.85019642       3.63000000        2       0.76114641       0.11342780       0.00997888      -0.03417448      -0.06497318      -0.02686598
Cu       3.85019642       3.85019642       3.63000000        2       0.43864664       0.73187528       0.26758251      -0.02815444      -0.10106541      -0.07399617
Cu       6.41699404       3.85019642       3.63000000        2       0.65718937       0.60548536       0.99842882       0.00100820      -1.96845482      -2.75763034
Cu       8.98379165       3.85019642       3.63000000        2       0.03105975       0.85770455       0.67827055       0.06150294      -0.03530325      -0.02783626
Cu       1.28339881       6.41699404       3.63000000        2       0.57846665       0.04373558       0.06021905      -1.96813955       0.00327900      -2.76041125
Cu       3.85019642       6.41699404       3.63000000        2       0.24525074       0.66953300       0.74337271       1.90374992       0.03738877      -2.80914459
Cu       6.41699404       6.41699404       3.63000000        2       0.97984550       0.04669309       0.57601575       0.00499660       1.96912572      -2.75923412
Cu       8.98379165       6.41699404       3.63000000        2       0.18328561       0.85896766       0.86964309       0.05926580       0.03794513      -0.02809085
Cu       1.28339881       8.98379165       3.63000000        2       0.56727404       0.80641774       0.57976520      -0.03573160       0.06588045      -0.02318706
Cu       3.85019642       8.98379165       3.63000000        2       0.23260134       0.96300710       0.07454375       0.03555790       0.06633146      -0.02324751
Cu       6.41699404       8.98379165       3.63000000        2       0.26478363       0.18016307       0.99668504       0.00041467       0.00485046       0.02526744
Cu       8.98379165       8.98379165       3.63000000        2       0.78702019       0.09500010       0.57920954      -0.00024082       0.00064057       0.02711840
Cu       0.00000000       0.00000000       5.44500000        1       0.12111046       0.23688159       0.80418283       0.00256426      -0.00857531      -0.21648719
Cu       2.56679762       0.00000000       5.44500000        1       0.68835257       0.28979536       0.95239040       0.00963689       0.00144985      -0.24753470
Cu       5.13359523       0.00000000       5.44500000        1       0.37173424       0.72447449       0.81480198       0.00071332       0.00202559      -0.20492064
Cu       7.70039285       0.00000000       5.44500000        1       0.24378937       0.22411866       0.21657352      -0.00207613      -0.00249758      -0.20940647
Cu       0.00000000       2.56679762       5.44500000        1       0.30069005       0.70129102       0.29280155       0.13594615       0.13578943      -0.00392775
Cu       2.56679762       2.56679762       5.44500000        1       0.22677046       0.36791699       0.24992967      -0.00903543       0.13447010      -0.04928577
Cu       5.13359523       2.56679762       5.44500000        1       0.17930641       0.39987898       0.65988972      -0.24989905      -0.32748705      -0.03727712
Cu       7.70039285       2.56679762       5.44500000        1       0.05650723       0.48691693       0.87568636       0.17207405      -0.38455267      -0.23010318
Cu       0.00000000       5.13359523       5.44500000        1       0.50193440       0.71660466       0.82402048      -0.24779089      -0.26470909      -0.10687874
Cu       2.56679762       5.13359523       5.44500000        1       0.19203440       0.03959641       0.16333458      -0.10935354     -69.25589078      -0.08916485
Cu       5.13359523       5.13359523       5.44500000        1       0.83740104       0.09811996       0.14177685     -68.73517325      -0.25603907      -0.11760034
Cu       7.70039285       5.13359523       5.44500000        1       0.80073073       0.42116599       0.62781648      69.07504832       0.00490141      -0.24130302
Cu       0.00000000       7.70039285       5.44500000        1       0.53030856       0.91338970       0.97386845      -0.39162379       0.19218097      -0.20173444
Cu       2.56679762       7.70039285       5.44500000        1       0.64166038       0.36593897       0.22488475      -0.00531048      69.12457503      -0.17588626
Cu       5.13359523       7.70039285       5.44500000        1       0.76728814       0.68473696       0.77373491       0.20440444       0.58968921      -0.20772553
Cu       7.70039285       7.70039285       5.44500000        1       0.15038755       0.18850985       0.77332565       0.19208224       0.39635881      -0.20676918
C        0.00000000       2.80000000       7.84500000        0       0.82230886       0.36360813       0.12716635       3.52449935       3.36019104      -0.31026858
C       -0.18239651       4.16085465       7.84529340        0       0.02294725       0.32575684       0.24698556       3.76084671      -2.86040721      -0.25377504
O        1.00934983       4.80965694       7.84505237        0       0.13431112       0.25878936       0.49144170      -0.03327409      -0.36913634      -0.15108423
C        1.99139235       3.83368450       7.84470214        0       0.40970279       0.17277226       0.93420419      -0.08321446      -0.33849214      -0.19330250
C        1.40318044       2.58736551       7.84459703        0       0.71653415       0.74553486       0.18369857      -2.31083524       4.16675913      -0.26880137
C        3.36791757       4.28926521       7.84441929        0       0.94660722       0.50444543       0.34738314       0.17745776      -4.06176640      -0.20701208
O        4.33490962       3.53331941       7.84464740        0       0.43005963       0.99221042       0.23829776      -0.98666551       0.64446931      -0.29266745
H       -0.78545962       2.05237439       7.84506255        0       0.22588343       0.65092551       0.19796304      -2.97951544      -2.84325831       0.30258018
H       -1.06532547       4.79055512       7.84571394        0       0.25995107       0.66139106       0.46467650      -3.43189186       2.34032936       0.28454457
H        1.93944688       1.64422833       7.84420746        0       0.34549464       0.87092553       0.55798173       1.90749753      -3.50654139       0.25681353
H        3.48441075       5.40056810       7.84383821        0       0.01508731       0.60031783       0.07889587       0.40392051       3.36387768       0.26371230
H        2.56679762       6.41699404       5.44500000        0       0.17686243       0.71239150       0.40194269       0.00469536       0.01962703       5.73303296
H        6.41699404       5.13359523       5.44500000        0       0.86633565       0.49090566       0.88226888       0.00437264       0.00258542       5.74739287
77
Lattice="10.26719046282867 0.0 0.0 0.0 10.26719046282867 0.0 0.0 0.0 32.0" Properties=species:S:1:pos:R:3:tags:I:1:MACE_forces:R:3:DFT_forces:R:3 slab=Cu100 species=FA _ConfigSet_loc=" / 0 / 16" DFT_energy=22.087028443640943 pbc="T T T"
Cu       1.28339881       1.28339881       0.00000000        4       0.46999568       0.96817348       0.32299100      -0.00000002      -0.00000004       0.20645448
Cu       3.85019642       1.28339881       0.00000000        4       0.72338776       0.00531848       0.71077145       0.00000003      -0.00000004       0.20645457
Cu       6.41699404       1.28339881       0.00000000        4       0.09210661       0.06468113       0.63577604      -0.00000001      -0.00000002       0.20645464
Cu       8.98379165       1.28339881       0.00000000        4       0.34703149       0.90353889       0.65013049       0.00000002      -0.00000003       0.20645458
Cu       1.28339881       3.85019642       0.00000000        4       0.13941847       0.03530288       0.58715770      -0.00000003       0.00000002       0.20645411
Cu       3.85019642       3.85019642       0.00000000        4       0.64813092       0.85450949       0.80425009       0.00000004       0.00000002       0.20645426
Cu       6.41699404       3.85019642       0.00000000        4       0.58539130       0.30927589       0.01170453      -0.00000001       0.00000002       0.20645457
Cu       8.98379165       3.85019642       0.00000000        4       0.98647033       0.84932663       0.06366660       0.00000001       0.00000002       0.20645441
Cu       1.28339881       6.41699404       0.00000000        4       0.16931020       0.19917969       0.21124392      -0.00000002       0.00000001       0.20645453
Cu       3.85019642       6.41699404       0.00000000        4       0.32608966       0.11463142       0.52440202       0.00000003       0.00000000       0.20645457
Cu       6.41699404       6.41699404       0.00000000        4       0.16648965       0.10730946       0.59550166      -0.00000001      -0.00000001       0.20645465
Cu       8.98379165       6.41699404       0.00000000        4       0.86081463       0.10814880       0.39118963       0.00000002      -0.00000000       0.20645460
Cu       1.28339881       8.98379165       0.00000000        4       0.16053969       0.90114905       0.83553592      -0.00000002       0.00000003       0.20645464
Cu       3.85019642       8.98379165       0.00000000        4       0.66931862       0.80092465       0.45769094       0.00000002       0.00000003       0.20645463
Cu       6.41699404       8.98379165       0.00000000        4       0.57505409       0.00291405       0.82413234      -0.00000001       0.00000003       0.20645465
Cu       8.98379165       8.98379165       0.00000000        4       0.80893105       0.81447120       0.94939460       0.00000003       0.00000003       0.20645464
Cu       0.00000000       0.00000000       1.81500000        3       0.78054045       0.61134560       0.18373498      -0.00000205      -0.00001393      -0.02766440
Cu       2.56679762       0.00000000       1.81500000        3       0.34880733       0.21780825       0.30428357       0.00000223      -0.00001099      -0.02765864
Cu       5.13359523       0.00000000       1.81500000        3       0.20719710       0.10656158       0.71805316       0.00000144      -0.00000466      -0.02764658
Cu       7.70039285       0.00000000       1.81500000        3       0.98330538       0.42396765       0.21108566      -0.00000166      -0.00000259      -0.02764362
Cu       0.00000000       2.56679762       1.81500000        3       0.14442051       0.34217563       0.51301268      -0.00001278      -0.00001492      -0.02791225
Cu       2.56679762       2.56679762       1.81500000        3       0.91027155       0.00089914       0.90706187       0.00001142      -0.00001663      -0.02784468
Cu       5.13359523       2.56679762       1.81500000        3       0.04254034       0.36897604       0.37059664       0.00001208      -0.00000766      -0.02773357
Cu       7.70039285       2.56679762       1.81500000        3       0.21957756       0.50795817       0.24447983      -0.00001073      -0.00000357      -0.02767392
Cu       0.00000000       5.13359523       1.81500000        3       0.48844380       0.73621367       0.17829128      -0.00001254       0.00001886      -0.02785245
Cu       2.56679762       5.13359523       1.81500000        3       0.41282308       0.50124771       0.63761214       0.00000924       0.00001778      -0.02783888
Cu       5.13359523       5.13359523       1.81500000        3       0.41295671       0.73061366       0.67498412       0.00001220       0.00000858      -0.02770903
Cu       7.70039285       5.13359523       1.81500000        3       0.24453539       0.62668648       0.16096369      -0.00000893       0.00000449      -0.02766672
Cu       0.00000000       7.70039285       1.81500000        3       0.49830642       0.86639384       0.01252084      -0.00000168       0.00000995      -0.02765613
Cu       2.56679762       7.70039285       1.81500000        3       0.45624872       0.16399375       0.10319395       0.00000131       0.00000981      -0.02765538
Cu       5.13359523       7.70039285       1.81500000        3       0.02407892       0.96938003       0.14276177       0.00000145       0.00000340      -0.02764462
Cu       7.70039285       7.70039285       1.81500000        3       0.66417646       0.13609311       0.73199176      -0.00000112       0.00000163      -0.02764200
Cu       1.28339881       1.28339881       3.63000000        2       0.99393129       0.98725007       0.80776467       0.00081814      -0.00412351       0.02249760
Cu       3.85019642       1.28339881       3.63000000        2       0.15628532       0.15418821       0.08818563       0.00086213      -0.00289732       0.02365472
Cu       6.41699404       1.28339881       3.63000000        2       0.05543515       0.84213158       0.66226019       0.00096268      -0.00133808       0.02576661
Cu       8.98379165       1.28339881       3.63000000        2       0.93926258       0.99025946       0.20550681      -0.00280168      -0.00286852       0.02362912
Cu       1.28339881       3.85019642       3.63000000        2       0.02852005       0.47411159       0.00520279       0.00114222       0.00066512       0.02311440
Cu       3.85019642       3.85019642       3.63000000        2       0.52276692       0.20145918       0.38790603      -0.00094979       0.00050448       0.01611943
Cu       6.41699404       3.85019642       3.63000000        2       0.04484360       0.79562757       0.10134877       0.00375830       0.00053072       0.01842161
Cu       8.98379165       3.85019642       3.63000000        2       0.24744103       0.74238571       0.34413640      -0.00395616       0.00071404       0.02285767
Cu       1.28339881       6.41699404       3.63000000        2       0.34771898       0.57037396       0.60870472       0.00017651       0.00359496       0.02319396
Cu       3.85019642       6.41699404       3.63000000        2       0.31130747       0.82877782       0.12499268       0.00109616       0.00247607       0.02426599
Cu       6.41699404       6.41699404       3.63000000        2       0.69681384       0.47438207       0.35233360       0.00067192       0.00096655       0.02629689
Cu       8.98379165       6.41699404       3.63000000        2       0.98135744       0.59475979       0.78590586      -0.00207874       0.00219374       0.02462816
Cu       1.28339881       8.98379165       3.63000000        2       0.51948695       0.27198613       0.32306471       0.00003108      -0.00006665       0.02739380
Cu       3.85019642       8.98379165       3.63000000        2       0.79807384       0.64513739       0.15011980       0.00005885      -0.00002356       0.02752682
Cu       6.41699404       8.98379165       3.63000000        2       0.67273290       0.47983047       0.73909124       0.00000667      -0.00000610       0.02761508
Cu       8.98379165       8.98379165       3.63000000        2       0.53078300       0.88660450       0.08914280      -0.00009643      -0.00003167       0.02750658
Cu       0.00000000       0.00000000       5.44500000        1       0.20389018       0.04824273       0.14537142       0.00368016      -0.01011122      -0.21648783
Cu       2.56679762       0.00000000       5.44500000        1       0.76738024       0.18305067       0.93309241       0.00939763      -0.02872109      -0.24778515
Cu       5.13359523       0.00000000       5.44500000        1       0.39481358       0.29274897       0.29398674      -0.00011110      -0.00273362      -0.20647733
Cu       7.70039285       0.00000000       5.44500000        1       0.06174957       0.38883778       0.43547034      -0.00207999      -0.00267547      -0.20949255
Cu       0.00000000       2.56679762       5.44500000        1       0.61375539       0.07312996       0.31963088       0.13516166       0.13825464      -0.00422615
Cu       2.56679762       2.56679762       5.44500000        1       0.91973117       0.06152006       0.72526076      -0.06673565       0.12575476      -0.11616339
Cu       5.13359523       2.56679762       5.44500000        1       0.73755015       0.26925312       0.36872479       0.04874403      -1.18285527      -1.95444791
Cu       7.70039285       2.56679762       5.44500000        1       0.37739349       0.14234956       0.50443091       0.00858546      -0.00184187      -0.24960885
Cu       0.00000000       5.13359523       5.44500000        1       0.11926868       0.67172676       0.83077535       0.11672667      -0.07220986      -0.10751079
Cu       2.56679762       5.13359523       5.44500000        1       0.30731683       0.20703483       0.25946820      -0.14056568      -0.09158832      -0.22618600
Cu       5.13359523       5.13359523       5.44500000        1       0.94867002       0.86207519       0.32643503       0.06260457       0.90312378      -1.42697194
Cu       7.70039285       5.13359523       5.44500000        1       0.92272205       0.98876920       0.32471760      -0.01982674       0.01656711      -0.28877966
Cu       0.00000000       7.70039285       5.44500000        1       0.30100585       0.83983363       0.61242057       0.00237309      -0.00121423      -0.20178661
Cu       2.56679762       7.70039285       5.44500000        1       0.82028776       0.64332982       0.36707790      -0.00421180       0.00561538      -0.20941253
Cu       5.13359523       7.70039285       5.44500000        1       0.09840771       0.66629777       0.22635502       0.00146157       0.00408779      -0.20891590
Cu       7.70039285       7.70039285       5.44500000        1       0.78610509       0.65005886       0.21757422      -0.00015207       0.00079397      -0.20685098
C        0.00000000       2.80000000       7.84500000        0       0.58759987       0.61720851       0.34250740       3.52289976       3.35953857      -0.31058085
C       -0.18239651       4.16085465       7.84529340        0       0.82126665       0.01911994       0.18441007       3.75836644      -2.86015905      -0.25466270
O        1.00934983       4.80965694       7.84505237        0       0.41523446       0.56201324       0.54954053      -0.09652865      -0.34566823      -0.18036263
C        1.99139235       3.83368450       7.84470214        0       0.90021837       0.09631457       0.62499667      -1.15898479      -0.67750962      -0.73667498
C        1.40318044       2.58736551       7.84459703        0       0.78330388       0.83512042       0.84821088      -2.34592344       4.13572390      -0.28005929
C        3.36791757       4.28926521       7.84441929        0       0.27595252       0.74856296       0.54936062      -1.26646427      -3.18363619     -14.86184560
O        4.33490962       3.53331941       7.84464740        0       0.23423847       0.22671920       0.55741918      -7.20375364      -3.81569938       5.91935994
H       -0.78545962       2.05237439       7.84506255        0       0.73635432       0.79397785       0.11270264      -2.97951302      -2.84325386       0.30258368
H       -1.06532547       4.79055512       7.84571394        0       0.71514224       0.18105886       0.15770349      -3.43174162       2.34028895       0.28470542
H        1.93944688       1.64422833       7.84420746        0       0.77848751       0.87311454       0.99398690       1.90817023      -3.50554502       0.25712289
H        3.36791757       4.28926521       8.74441929        0       0.41481510       0.04979631       0.93727094      -0.29448701       0.90006002      16.85226286
H        3.48441075       5.40056810       7.84383821        0       0.65295222       0.66648524       0.71187324       0.46962706       3.91821649       0.03500548
H        5.05803973       3.75757238       7.23827009        0       0.78068508       0.20030235       0.34181506       8.96357932       2.77710708      -4.19006877
77
Lattice="10.26719046282867 0.0 0.0 0.0 10.26719046282867 0.0 0.0 0.0 32.0" Properties=species:S:1:pos:R:3:tags:I:1:MACE_forces:R:3:DFT_forces:R:3 slab=Cu100 species=tFURao+H _ConfigSet_loc=" / 0 / 10" DFT_energy=29.61496309970319 pbc="T T T"
Cu       1.28339881       1.28339881       0.00000000        4       0.83467596       0.81909286       0.21930905      -0.00000043      -0.00000004       0.20645389
Cu       3.85019642       1.28339881       0.00000000        4       0.17963223       0.80096016       0.26680945       0.00000003      -0.00000004       0.20636196
Cu       6.41699404       1.28339881       0.00000000        4       0.93408664       0.84787919       0.66189354       0.00000039      -0.00000002       0.20645406
Cu       8.98379165       1.28339881       0.00000000        4       0.88401835       0.15566195       0.05319763       0.00000002      -0.00000003       0.20645457
Cu       1.28339881       3.85019642       0.00000000        4       0.71581072       0.30525242       0.26871790      -0.00000007       0.00000007       0.20645405
Cu       3.85019642       3.85019642       0.00000000        4       0.94483496       0.29659957       0.78177813       0.00000004       0.00000043       0.20645367
Cu       6.41699404       3.85019642       0.00000000        4       0.68735834       0.21781426       0.87310725       0.00000004       0.00000007       0.20645451
Cu       8.98379165       3.85019642       0.00000000        4       0.92174090       0.63550223       0.45244872       0.00000001       0.00000002       0.20645441
Cu       1.28339881       6.41699404       0.00000000        4       0.91818907       0.37143984       0.21773232      -0.00000002       0.00000001       0.20645453
Cu       3.85019642       6.41699404       0.00000000        4       0.38217611       0.50393557       0.83219153       0.00000003       0.00000000       0.20645457
Cu       6.41699404       6.41699404       0.00000000        4       0.16171677       0.94979602       0.76078261      -0.00000001      -0.00000001       0.20645465
Cu       8.98379165       6.41699404       0.00000000        4       0.45208233       0.85542542       0.83697014       0.00000002      -0.00000000       0.20645460
Cu       1.28339881       8.98379165       0.00000000        4       0.35347140       0.87902988       0.42215901      -0.00000006      -0.00000002       0.20645457
Cu       3.85019642       8.98379165       0.00000000        4       0.62963908       0.23878028       0.33073764       0.00000002      -0.00000038       0.20645404
Cu       6.41699404       8.98379165       0.00000000        4       0.53038756       0.22884734       0.39758549       0.00000003      -0.00000002       0.20645459
Cu       8.98379165       8.98379165       0.00000000        4       0.33935715       0.81548309       0.16352344       0.00000003       0.00000003       0.20645464
Cu       0.00000000       0.00000000       1.81500000        3       0.09709786       0.91821130       0.80948680      -0.00006349      -0.00003415      -0.02772283
Cu       2.56679762       0.00000000       1.81500000        3       0.32963296       0.18511886       0.00717168      -0.00244410      -0.00245725      -0.03443400
Cu       5.13359523       0.00000000       1.81500000        3       0.64797101       0.82714531       0.97218607       0.00244779      -0.00245073      -0.03442172
Cu       7.70039285       0.00000000       1.81500000        3       0.88811123       0.18796116       0.69570844       0.00005976      -0.00002278      -0.02770202
Cu       0.00000000       2.56679762       1.81500000        3       0.50246448       0.67773053       0.17373043      -0.00007415       0.00000530      -0.02797058
Cu       2.56679762       2.56679762       1.81500000        3       0.95472298       0.06725246       0.80876668      -0.00243464       0.00242975      -0.03461799
Cu       5.13359523       2.56679762       1.81500000        3       0.01252807       0.49380457       0.15385087       0.00245833       0.00243933      -0.03450041
Cu       7.70039285       2.56679762       1.81500000        3       0.39924646       0.64134300       0.57772763       0.00005042       0.00001667      -0.02773193
Cu       0.00000000       5.13359523       1.81500000        3       0.37044706       0.60460024       0.65084801      -0.00001267       0.00001900      -0.02785264
Cu       2.56679762       5.13359523       1.81500000        3       0.77047223       0.24725103       0.68461520      -0.00001080       0.00007912      -0.02789694
Cu       5.13359523       5.13359523       1.81500000        3       0.86482292       0.23374040       0.77878305       0.00003240       0.00006957      -0.02776316
Cu       7.70039285       5.13359523       1.81500000        3       0.57932604       0.90563766       0.11561890      -0.00000897       0.00000460      -0.02766666
Cu       0.00000000       7.70039285       1.81500000        3       0.61772868       0.25594894       0.20745594      -0.00000182       0.00000981      -0.02765634
Cu       2.56679762       7.70039285       1.81500000        3       0.32720495       0.63621014       0.76709166      -0.00001890      -0.00005166      -0.02771380
Cu       5.13359523       7.70039285       1.81500000        3       0.22637888       0.11969222       0.63620021       0.00002167      -0.00005820      -0.02770286
Cu       7.70039285       7.70039285       1.81500000        3       0.45276123       0.00278804       0.73421081      -0.00000099       0.00000147      -0.02764218
Cu       1.28339881       1.28339881       3.63000000        2       0.58772512       0.02958885       0.83598886      -0.11634769      -0.00409874      -0.06075610
Cu       3.85019642       1.28339881       3.63000000        2       0.69138072       0.21662725       0.81753980       0.00115044      -0.00228848     -10.15699811
Cu       6.41699404       1.28339881       3.63000000        2       0.02170137       0.80480191       0.62126976       0.11784575      -0.00085757      -0.05681990
Cu       8.98379165       1.28339881       3.63000000        2       0.85153891       0.79650311       0.44615940      -0.00280212      -0.00286819       0.02356986
Cu       1.28339881       3.85019642       3.63000000        2       0.50342405       0.04876863       0.97805074      -0.00382519       0.00571176       0.01935504
Cu       3.85019642       3.85019642       3.63000000        2       0.77959076       0.80469916       0.11681757       0.00229387       0.11734560      -0.05713801
Cu       6.41699404       3.85019642       3.63000000        2       0.55299295       0.53315622       0.41707375       0.00576104       0.00535800       0.02248999
Cu       8.98379165       3.85019642       3.63000000        2       0.53390783       0.16653088       0.54647145      -0.00402689       0.00071365       0.02292071
Cu       1.28339881       6.41699404       3.63000000        2       0.07181080       0.42210802       0.68208873       0.00017562       0.00359453       0.02319256
Cu       3.85019642       6.41699404       3.63000000        2       0.24163172       0.29885900       0.61332398       0.00129222       0.00208105       0.02474734
Cu       6.41699404       6.41699404       3.63000000        2       0.14356319       0.59040953       0.59464270       0.00048483       0.00064082       0.02673928
Cu       8.98379165       6.41699404       3.63000000        2       0.68800153       0.12837406       0.13314082      -0.00207907       0.00219356       0.02462841
Cu       1.28339881       8.98379165       3.63000000        2       0.45035416       0.32076738       0.00591665      -0.00504371      -0.00514136       0.02351113
Cu       3.85019642       8.98379165       3.63000000        2       0.66270298       0.36297896       0.08945407       0.00005857      -0.11721458      -0.05576218
Cu       6.41699404       8.98379165       3.63000000        2       0.52148754       0.11677649       0.13073000       0.00508174      -0.00508119       0.02373201
Cu       8.98379165       8.98379165       3.63000000        2       0.52932544       0.37167022       0.68503873      -0.00009643      -0.00003308       0.02750461
Cu       0.00000000       0.00000000       5.44500000        1       0.32358120       0.43390626       0.05165482      -0.00415056      -0.01245333      -0.21648739
Cu       2.56679762       0.00000000       5.44500000        1       0.37305676       0.94979488       0.96098314      -7.18692552      -7.22484587      -0.24496311
Cu       5.13359523       0.00000000       5.44500000        1       0.23731561       0.87785736       0.53842737       7.19628820      -7.19608183      -0.20233475
Cu       7.70039285       0.00000000       5.44500000        1       0.16977727       0.87414868       0.24080343       0.00562358      -0.00484180      -0.20940680
Cu       0.00000000       2.56679762       5.44500000        1       0.79426694       0.00074896       0.09586960       0.12743615       0.14061139      -0.00419540
Cu       2.56679762       2.56679762       5.44500000        1       0.29169392       0.84898641       0.52689449      -7.21062890       7.34849129      -0.06794327
Cu       5.13359523       2.56679762       5.44500000        1       0.27473477       0.53699367       0.12249747       7.14348447       7.26007334      -0.04643746
Cu       7.70039285       2.56679762       5.44500000        1       0.97687399       0.86146600       0.22758658      -0.01236132       0.01330561      -0.23017721
Cu       0.00000000       5.13359523       5.44500000        1       0.86275335       0.81626700       0.30015501       0.11668391      -0.07214319      -0.10749060
Cu       2.56679762       5.13359523       5.44500000        1       0.29169175       0.60454695       0.79437146      -0.10636154      -0.10582093      -0.19630351
Cu       5.13359523       5.13359523       5.44500000        1       0.83796398       0.47849007       0.04877282       0.00399083      -0.04986665      -0.17161689
Cu       7.70039285       5.13359523       5.44500000        1       0.95320408       0.71501683       0.57175913      -0.04201628       0.00510786      -0.27371979
Cu       0.00000000       7.70039285       5.44500000        1       0.35853323       0.32988872       0.11518523       0.00229246      -0.00129520      -0.20178649
Cu       2.56679762       7.70039285       5.44500000        1       0.65159638       0.69285926       0.14161939      -0.00645301      -0.00239208      -0.20932546
Cu       5.13359523       7.70039285       5.44500000        1       0.00805575       0.72731810       0.18352206       0.00375863      -0.00541252      -0.20818619
Cu       7.70039285       7.70039285       5.44500000        1       0.02829772       0.57103689       0.82651167      -0.00013883       0.00061324      -0.20680666
C        0.00000000       2.80000000       7.84500000        0       0.82261239       0.49667224       0.38816425       3.52288360       3.35957520      -0.31054298
C       -0.18239651       4.16085465       7.84529340        0       0.61105107       0.19850009       0.08531020       3.75839123      -2.86016290      -0.25466367
O        1.00934983       4.80965694       7.84505237        0       0.78802434       0.52968656       0.02758484      -0.09565245      -0.34594732      -0.18038061
C        1.99139235       3.83368450       7.84470214        0       0.25233590       0.53921872       0.61820558      -1.12182319      -0.68001677      -0.73777421
C        1.40318044       2.58736551       7.84459703        0       0.90274704       0.01128459       0.09751462      -2.34432035       4.13790142      -0.27828759
C        3.36791757       4.28926521       7.84441929        0       0.36485360       0.98355980       0.42250383      -0.01047662      -3.92469828     -15.04151062
O        4.33490962       3.53331941       7.84464740        0       0.34754393       0.41209249       0.28087513       0.57334722      -0.56581584      -1.35855862
H       -0.78545962       2.05237439       7.84506255        0       0.69651681       0.02201602       0.15030468      -2.97949982      -2.84325820       0.30258327
H       -1.06532547       4.79055512       7.84571394        0       0.68303341       0.77916469       0.54750553      -3.43170214       2.34029873       0.28471119
H        1.93944688       1.64422833       7.84420746        0       0.17301546       0.61269275       0.44380583       1.90885789      -3.50581248       0.25614950
H        3.36791757       4.28926521       8.74441929        0       0.10973946       0.42149270       0.30431623      -0.27693354       0.88444701      16.83231102
H        3.48441075       5.40056810       7.84383821        0       0.60405556       0.02544796       0.00225706       0.46574123       3.91874463       0.03667346
H        3.85019642       1.28339881       5.44500000        0       0.00881749       0.82702134       0.81440086       0.00074179      -0.00836024      10.53937294
77
Lattice="10.26719046282867 0.0 0.0 0.0 10.26719046282867 0.0 0.0 0.0 32.0" Properties=species:S:1:pos:R:3:tags:I:1:MACE_forces:R:3:DFT_forces:R:3 slab=Cu100 species=tFUR+2H _ConfigSet_loc=" / 0 / 0" DFT_energy=60.80031872994077 pbc="T T T"
Cu       1.28339881       1.28339881       0.00000000        4       0.31489957       0.81457510       0.05213152      -0.00000043      -0.00000004       0.20645389
Cu       3.85019642       1.28339881       0.00000000        4       0.51085782       0.90997032       0.62465196       0.00000003      -0.00000004       0.20636196
Cu       6.41699404       1.28339881       0.00000000        4       0.09446269       0.03528247       0.04072715       0.00000039      -0.00000002       0.20645406
Cu       8.98379165       1.28339881       0.00000000        4       0.74999216       0.55136139       0.92116346       0.00000002      -0.00000003       0.20645457
Cu       1.28339881       3.85019642       0.00000000        4       0.45091101       0.51704577       0.63332151      -0.00000008       0.00000001       0.20645395
Cu       3.85019642       3.85019642       0.00000000        4       0.73455673       0.85433111       0.52234896       0.00000005       0.00000037       0.20645358
Cu       6.41699404       3.85019642       0.00000000        4       0.33641138       0.42137490       0.91828235       0.00000004       0.00000006       0.20645450
Cu       8.98379165       3.85019642       0.00000000        4       0.17617729       0.34572866       0.89406464       0.00000000       0.00000002       0.20645440
Cu       1.28339881       6.41699404       0.00000000        4       0.06308135       0.47409706       0.04989938      -0.00000073       0.00000001       0.20645055
Cu       3.85019642       6.41699404       0.00000000        4       0.64005314       0.44008998       0.80079088       0.00000073       0.00000000       0.20645059
Cu       6.41699404       6.41699404       0.00000000        4       0.00335980       0.92783535       0.23691064       0.00000004      -0.00000001       0.20645458
Cu       8.98379165       6.41699404       0.00000000        4       0.07595691       0.84342271       0.10043987      -0.00000003      -0.00000000       0.20645453
Cu       1.28339881       8.98379165       0.00000000        4       0.15066525       0.74752536       0.75583844      -0.00000007       0.00000005       0.20645448
Cu       3.85019642       8.98379165       0.00000000        4       0.41062743       0.48770905       0.26402203       0.00000003      -0.00000032       0.20645395
Cu       6.41699404       8.98379165       0.00000000        4       0.60464411       0.67442120       0.39600581       0.00000004      -0.00000001       0.20645458
Cu       8.98379165       8.98379165       0.00000000        4       0.70564506       0.79699944       0.05874772       0.00000002       0.00000003       0.20645463
Cu       0.00000000       0.00000000       1.81500000        3       0.10385442       0.03664844       0.39739854      -0.00006546      -0.00003212      -0.02772563
Cu       2.56679762       0.00000000       1.81500000        3       0.33489157       0.46310732       0.36504375      -0.00244410      -0.00223843      -0.03464894
Cu       5.13359523       0.00000000       1.81500000        3       0.42524902       0.12767389       0.55422837       0.00244977      -0.00244870      -0.03442451
Cu       7.70039285       0.00000000       1.81500000        3       0.02139570       0.86479829       0.49164337       0.00005976      -0.00002278      -0.02770202
Cu       0.00000000       2.56679762       1.81500000        3       0.78284327       0.40297202       0.64912016      -0.00007601       0.00000338      -0.02797322
Cu       2.56679762       2.56679762       1.81500000        3       0.14912581       0.60379274       0.85021720      -0.00243464       0.00221200      -0.03483142
Cu       5.13359523       2.56679762       1.81500000        3       0.72600376       0.35926936       0.84045887       0.00246019       0.00243741      -0.03450305
Cu       7.70039285       2.56679762       1.81500000        3       0.51467745       0.79479129       0.81012591       0.00005042       0.00001667      -0.02773193
Cu       0.00000000       5.13359523       1.81500000        3       0.71625022       0.98781734       0.04524730      -0.00087675      -0.00041328      -0.02907470
Cu       2.56679762       5.13359523       1.81500000        3       0.39933011       0.35150819       0.11559519      -0.00001080      -0.00613283      -0.04577937
Cu       5.13359523       5.13359523       1.81500000        3       0.98313336       0.79633154       0.50291295       0.00089647      -0.00036271      -0.02898522
Cu       7.70039285       5.13359523       1.81500000        3       0.33249095       0.40417500       0.93242912      -0.00000897       0.00000454      -0.02766676
Cu       0.00000000       7.70039285       1.81500000        3       0.50582878       0.17791342       0.68635761      -0.00086685       0.00044197      -0.02887975
Cu       2.56679762       7.70039285       1.81500000        3       0.76659723       0.96862444       0.03876207      -0.00001890       0.00615922      -0.04561825
Cu       5.13359523       7.70039285       1.81500000        3       0.86539989       0.89434499       0.87144356       0.00088670       0.00037397      -0.02892628
Cu       7.70039285       7.70039285       1.81500000        3       0.20432388       0.72549366       0.89204730      -0.00000099       0.00000153      -0.02764228
Cu       1.28339881       1.28339881       3.63000000        2       0.37621755       0.62528768       0.59801559      -0.11636665      -0.00409663      -0.06078243
Cu       3.85019642       1.28339881       3.63000000        2       0.14228021       0.38612088       0.14296511       0.00116883      -0.00227199     -10.15700220
Cu       6.41699404       1.28339881       3.63000000        2       0.74996967       0.75958376       0.66077023       0.11784455      -0.00085626      -0.05681746
Cu       8.98379165       1.28339881       3.63000000        2       0.36439789       0.20404717       0.28423610      -0.00280213      -0.00286819       0.02356985
Cu       1.28339881       3.85019642       3.63000000        2       0.61629746       0.93956592       0.38976852      -0.03922529      -0.05990315      -0.03068657
Cu       3.85019642       3.85019642       3.63000000        2       0.12532428       0.95934919       0.71736206       0.03769142       0.05176766      -0.10677808
Cu       6.41699404       3.85019642       3.63000000        2       0.74235968       0.67817987       0.13066220       0.00614928       0.00509660       0.02232599
Cu       8.98379165       3.85019642       3.63000000        2       0.56643382       0.23710077       0.03402788      -0.00443320       0.00045035       0.02272793
Cu       1.28339881       6.41699404       3.63000000        2       0.39507057       0.62906815       0.43954924      -1.96814130       0.00325932      -2.76038548
Cu       3.85019642       6.41699404       3.63000000        2       0.35243915       0.05247942       0.93738598       1.96961038       0.00171234      -2.75874558
Cu       6.41699404       6.41699404       3.63000000        2       0.16957489       0.10724065       0.09738456       0.00507410       0.00063933       0.02458918
Cu       8.98379165       6.41699404       3.63000000        2       0.68396765       0.51739931       0.71929608      -0.00667042       0.00219289       0.02247524
Cu       1.28339881       8.98379165       3.63000000        2       0.75344525       0.24211774       0.39779089      -0.04080639       0.06080572      -0.02706972
Cu       3.85019642       8.98379165       3.63000000        2       0.67245812       0.83891455       0.85707657       0.03582124      -0.05126761      -0.10634289
Cu       6.41699404       8.98379165       3.63000000        2       0.75673324       0.22717249       0.02027087       0.00549007      -0.00481722       0.02353791
Cu       8.98379165       8.98379165       3.63000000        2       0.36001492       0.75742016       0.61624787      -0.00050476       0.00023089       0.02731051
Cu       0.00000000       0.00000000       5.44500000        1       0.10759206       0.30129036       0.34599553      -0.00526669      -0.01091744      -0.21648675
Cu       2.56679762       0.00000000       5.44500000        1       0.26770719       0.76674613       0.88522636      -7.18691115      -7.19505278      -0.24492357
Cu       5.13359523       0.00000000       5.44500000        1       0.16965073       0.79635471       0.03553501       7.19739143      -7.19449961      -0.20230440
Cu       7.70039285       0.00000000       5.44500000        1       0.04093911       0.27124894       0.45097392       0.00562247      -0.00484040      -0.20940600
Cu       0.00000000       2.56679762       5.44500000        1       0.52513252       0.43243030       0.39810515       0.12662808       0.13924886      -0.00392763
Cu       2.56679762       2.56679762       5.44500000        1       0.78578515       0.05099110       0.32340761      -7.20417911       7.33226819      -0.04694572
Cu       5.13359523       2.56679762       5.44500000        1       0.66997978       0.67799311       0.62786959       7.13900204       7.26449427      -0.03481073
Cu       7.70039285       2.56679762       5.44500000        1       0.58343316       0.17994309       0.89642900      -0.01241912       0.01332382      -0.23013784
Cu       0.00000000       5.13359523       5.44500000        1       0.83947024       0.73015430       0.04241767      -0.27758424      -0.26462954      -0.10687893
Cu       2.56679762       5.13359523       5.44500000        1       0.37627512       0.72084394       0.87053564      -0.08213479     -69.24810796      -0.08916458
Cu       5.13359523       5.13359523       5.44500000        1       0.25216282       0.98112006       0.08347310       0.38506880      -0.24846338      -0.14914856
Cu       7.70039285       5.13359523       5.44500000        1       0.82325418       0.31148015       0.00928854      -0.04207747       0.00495762      -0.27368008
Cu       0.00000000       7.70039285       5.44500000        1       0.38813700       0.28363636       0.35455306      -0.39323923       0.19098415      -0.20173454
Cu       2.56679762       7.70039285       5.44500000        1       0.09681946       0.41661634       0.12120276      -0.00612307      69.11563095      -0.17588582
Cu       5.13359523       7.70039285       5.44500000        1       0.13206386       0.49238531       0.81487439       0.39905726       0.18647163      -0.20776025
Cu       7.70039285       7.70039285       5.44500000        1       0.52578404       0.54574551       0.52269029      -0.00014257       0.00074489      -0.20680445
C        0.00000000       2.80000000       7.84500000        0       0.51760396       0.79224583       0.13041268       3.52440457       3.36023545      -0.31024905
C       -0.18239651       4.16085465       7.84529340        0       0.31986236       0.82871892       0.23638378       3.76059260      -2.86033205      -0.25395234
O        1.00934983       4.80965694       7.84505237        0       0.21845873       0.33130932       0.81385847      -0.03330629      -0.36911714      -0.15108225
C        1.99139235       3.83368450       7.84470214        0       0.21177345       0.52243825       0.14144090      -0.08369538      -0.33777307      -0.19263381
C        1.40318044       2.58736551       7.84459703        0       0.31997889       0.48118699       0.49290854      -2.31274760       4.16778523      -0.26691111
C        3.36791757       4.28926521       7.84441929        0       0.66142076       0.68787023       0.47564364       0.17845189      -4.06029389      -0.20711393
O        4.33490962       3.53331941       7.84464740        0       0.02138368       0.06221900       0.97593929      -0.98253488       0.65233267      -0.29033923
H       -0.78545962       2.05237439       7.84506255        0       0.83583363       0.46915278       0.11799194      -2.97950823      -2.84326271       0.30258141
H       -1.06532547       4.79055512       7.84571394        0       0.06477436       0.79350143       0.58620746      -3.43170933       2.34030631       0.28469911
H        1.93944688       1.64422833       7.84420746        0       0.23415511       0.14320498       0.45527090       1.90831433      -3.50672395       0.25581280
H        3.48441075       5.40056810       7.84383821        0       0.32548044       0.62528646       0.05662651       0.40378358       3.36388001       0.26381851
H        2.56679762       6.41699404       5.44500000        0       0.01848452       0.65977556       0.87222029       0.00461998       0.01965230       5.73303295
H        3.85019642       1.28339881       5.44500000        0       0.93327430       0.30480106       0.67270037       0.00074248      -0.00837639      10.53935517
77
Lattice="10.26719046282867 0.0 0.0 0.0 10.26719046282867 0.0 0.0 0.0 32.0" Properties=species:S:1:pos:R:3:tags:I:1:MACE_forces:R:3:DFT_forces:R:3 slab=Cu100 species=tFURha+H _ConfigSet_loc=" / 0 / 14" DFT_energy=52.692098412306564 pbc="T T T"
Cu       1.28339881       1.28339881       0.00000000        4       0.20988269       0.88032177       0.31228324      -0.00000002      -0.00000004       0.20645448
Cu       3.85019642       1.28339881       0.00000000        4       0.07445362       0.37243505       0.22916336       0.00000003      -0.00000004       0.20645457
Cu       6.41699404       1.28339881       0.00000000        4       0.28266996       0.37824733       0.84218406      -0.00000001      -0.00000002       0.20645464
Cu       8.98379165       1.28339881       0.00000000        4       0.97180340       0.03150830       0.81215625       0.00000002      -0.00000003       0.20645458
Cu       1.28339881       3.85019642       0.00000000        4       0.92677426       0.29167991       0.15619698      -0.00000004      -0.00000004       0.20645402
Cu       3.85019642       3.85019642       0.00000000        4       0.20070463       0.43647866       0.55561450       0.00000005      -0.00000004       0.20645417
Cu       6.41699404       3.85019642       0.00000000        4       0.26486755       0.74299789       0.38578526      -0.00000000       0.00000002       0.20645457
Cu       8.98379165       3.85019642       0.00000000        4       0.93179083       0.98831018       0.99281304       0.00000000       0.00000002       0.20645440
Cu       1.28339881       6.41699404       0.00000000        4       0.72552948       0.67129567       0.71728241      -0.00000072       0.00000001       0.20645055
Cu       3.85019642       6.41699404       0.00000000        4       0.85314481       0.20508955       0.11034269       0.00000073       0.00000000       0.20645059
Cu       6.41699404       6.41699404       0.00000000        4       0.81818244       0.03976561       0.39638392       0.00000004      -0.00000001       0.20645458
Cu       8.98379165       6.41699404       0.00000000        4       0.92337364       0.88521958       0.41953442      -0.00000003      -0.00000000       0.20645453
Cu       1.28339881       8.98379165       0.00000000        4       0.58917993       0.27566075       0.90824502      -0.00000003       0.00000009       0.20645454
Cu       3.85019642       8.98379165       0.00000000        4       0.97934054       0.25537047       0.95317614       0.00000003       0.00000009       0.20645454
Cu       6.41699404       8.98379165       0.00000000        4       0.28452896       0.00473295       0.51845267      -0.00000001       0.00000003       0.20645464
Cu       8.98379165       8.98379165       0.00000000        4       0.04180633       0.53275240       0.38566881       0.00000002       0.00000003       0.20645463
Cu       0.00000000       0.00000000       1.81500000        3       0.40029651       0.94802161       0.28493821      -0.00000402      -0.00001190      -0.02766720
Cu       2.56679762       0.00000000       1.81500000        3       0.38760835       0.95385860       0.61680810       0.00000224       0.00020783      -0.02787357
Cu       5.13359523       0.00000000       1.81500000        3       0.83305180       0.22807739       0.96915297       0.00000341      -0.00000256      -0.02764929
Cu       7.70039285       0.00000000       1.81500000        3       0.54523546       0.08806223       0.47304570      -0.00000167      -0.00000258      -0.02764361
Cu       0.00000000       2.56679762       1.81500000        3       0.97014119       0.18971023       0.42635013      -0.00001464      -0.00001684      -0.02791489
Cu       2.56679762       2.56679762       1.81500000        3       0.05520334       0.83206957       0.87974216       0.00001151      -0.00023436      -0.02805798
Cu       5.13359523       2.56679762       1.81500000        3       0.98916720       0.60133558       0.09823726       0.00001391      -0.00000897      -0.02773247
Cu       7.70039285       2.56679762       1.81500000        3       0.68999586       0.12957777       0.24254262      -0.00001081      -0.00000355      -0.02767382
Cu       0.00000000       5.13359523       1.81500000        3       0.99928211       0.34597728       0.29581314      -0.00087661      -0.00041342      -0.02907450
Cu       2.56679762       5.13359523       1.81500000        3       0.38452011       0.77670218       0.43131277       0.00000939      -0.00619418      -0.04572109
Cu       5.13359523       5.13359523       1.81500000        3       0.05275523       0.39947725       0.49448334       0.00087626      -0.00042393      -0.02892737
Cu       7.70039285       5.13359523       1.81500000        3       0.16202888       0.95445531       0.21444251      -0.00000908       0.00000442      -0.02766661
Cu       0.00000000       7.70039285       1.81500000        3       0.24547571       0.02857417       0.88337314      -0.00086671       0.00044212      -0.02887955
Cu       2.56679762       7.70039285       1.81500000        3       0.54764755       0.32706942       0.23444889       0.00000132       0.00622068      -0.04555981
Cu       5.13359523       7.70039285       1.81500000        3       0.73532376       0.43656902       0.26288794       0.00086648       0.00043543      -0.02886785
Cu       7.70039285       7.70039285       1.81500000        3       0.40804695       0.79014556       0.38293534      -0.00000113       0.00000167      -0.02764208
Cu       1.28339881       1.28339881       3.63000000        2       0.31079571       0.55500410       0.54893256       0.00079941      -0.00412123       0.02247151
Cu       3.85019642       1.28339881       3.63000000        2       0.83190441       0.19271706       0.59179599       0.00096191      -0.00264783       0.02388539
Cu       6.41699404       1.28339881       3.63000000        2       0.46369970       0.07963243       0.36231982       0.00089565      -0.00121425       0.02582137
Cu       8.98379165       1.28339881       3.63000000        2       0.98749879       0.56309999       0.73294374      -0.00280170      -0.00286856       0.02362904
Cu       1.28339881       3.85019642       3.63000000        2       0.60185656       0.56040983       0.84492824      -0.03419876      -0.06495101      -0.02687085
Cu       3.85019642       3.85019642       3.63000000        2       0.01271926       0.90299999       0.40235443       0.03678609      -0.06498213      -0.02651943
Cu       6.41699404       3.85019642       3.63000000        2       0.21739968       0.34547821       0.84403058       0.00205180       0.00046865       0.02323525
Cu       8.98379165       3.85019642       3.63000000        2       0.72083991       0.01388208       0.21403695      -0.00441652       0.00045157       0.02271253
Cu       1.28339881       6.41699404       3.63000000        2       0.92938084       0.77655748       0.74588517      -1.96813999       0.00325948      -2.76038365
Cu       3.85019642       6.41699404       3.63000000        2       0.38236250       0.63970197       0.36775622       1.96958402       0.00178361      -2.75878099
Cu       6.41699404       6.41699404       3.63000000        2       0.36355723       0.47976618       0.22232585       0.00509664       0.00069410       0.02452158
Cu       8.98379165       6.41699404       3.63000000        2       0.96702986       0.96893965       0.05123485      -0.00667037       0.00219293       0.02247519
Cu       1.28339881       8.98379165       3.63000000        2       0.67251132       0.40320954       0.41229634      -0.03573160       0.06588043      -0.02318705
Cu       3.85019642       8.98379165       3.63000000        2       0.67265478       0.31542607       0.36214259       0.03582161       0.06592329      -0.02305377
Cu       6.41699404       8.98379165       3.63000000        2       0.41418206       0.10899886       0.59279176       0.00041491       0.00025775       0.02742110
Cu       8.98379165       8.98379165       3.63000000        2       0.13731694       0.50430394       0.28306298      -0.00050476       0.00023230       0.02731248
Cu       0.00000000       0.00000000       5.44500000        1       0.41162710       0.36683362       0.79609085       0.00256404      -0.00857533      -0.21648720
Cu       2.56679762       0.00000000       5.44500000        1       0.74680864       0.09883710       0.70191636       0.00936871       0.00105282      -0.24779034
Cu       5.13359523       0.00000000       5.44500000        1       0.55284735       0.20558596       0.70595312       0.00081360      -0.00318536      -0.20813820
Cu       7.70039285       0.00000000       5.44500000        1       0.50147141       0.78716302       0.17651315      -0.00194507      -0.00284765      -0.20962467
Cu       0.00000000       2.56679762       5.44500000        1       0.75869736       0.00822043       0.16482395       0.13436606       0.13689355      -0.00395742
Cu       2.56679762       2.56679762       5.44500000        1       0.51114149       0.94681355       0.92458583      -0.04040123       0.12291445      -0.08233201
Cu       5.13359523       2.56679762       5.44500000        1       0.53586278       0.14961785       0.43134252      -0.09738228      -0.49920231      -1.59902063
Cu       7.70039285       2.56679762       5.44500000        1       0.71335898       0.08319893       0.97579855       0.01112446       0.00151449      -0.25631110
Cu       0.00000000       5.13359523       5.44500000        1       0.45577877       0.50268651       0.06229701      -0.27753799      -0.26469689      -0.10689754
Cu       2.56679762       5.13359523       5.44500000        1       0.69927561       0.70807516       0.21567162      -0.09038992     -69.24743676      -0.10067396
Cu       5.13359523       5.13359523       5.44500000        1       0.85513986       0.19983416       0.25234068       0.38358307      -0.06645237      -0.37307556
Cu       7.70039285       5.13359523       5.44500000        1       0.36648186       0.67125171       0.26544667      -0.03439001       0.01049417      -0.28015859
Cu       0.00000000       7.70039285       5.44500000        1       0.83086039       0.78004211       0.70801699      -0.39315848       0.19106500      -0.20173458
Cu       2.56679762       7.70039285       5.44500000        1       0.53956158       0.53313602       0.99000792      -0.00379753      69.12350411      -0.17591026
Cu       5.13359523       7.70039285       5.44500000        1       0.08296538       0.99530245       0.99798420       0.39672662       0.19458774      -0.20790063
Cu       7.70039285       7.70039285       5.44500000        1       0.64976735       0.31640511       0.32742731      -0.00021407       0.00084214      -0.20681213
C        0.00000000       2.80000000       7.84500000        0       0.75245036       0.58905029       0.28856341       3.52442270       3.36020110      -0.31028821
C       -0.18239651       4.16085465       7.84529340        0       0.21402336       0.76208652       0.68265658       3.76057981      -2.86032691      -0.25395292
O        1.00934983       4.80965694       7.84505237        0       0.10670580       0.60816124       0.95987867      -0.03399752      -0.36887130      -0.15108966
C        1.99139235       3.83368450       7.84470214        0       0.36745878       0.06081125       0.73468652      -0.11611315      -0.33438262      -0.19286955
C        1.40318044       2.58736551       7.84459703        0       0.37768986       0.70642679       0.64540340      -2.31426523       4.16572212      -0.26875341
C        3.36791757       4.28926521       7.84441929        0       0.10833192       0.21513649       0.63998086      -0.77709181      -3.36342098      -0.17520289
O        4.33490962       3.53331941       7.84464740        0       0.30209195       0.08733087       0.48231869      -9.57618073       2.33020935       3.20644729
H       -0.78545962       2.05237439       7.84506255        0       0.34760254       0.46729334       0.99612833      -2.97953787      -2.84325438       0.30258119
H       -1.06532547       4.79055512       7.84571394        0       0.07649669       0.66091583       0.25634059      -3.43175514       2.34028943       0.28469542
H        1.93944688       1.64422833       7.84420746        0       0.23084373       0.67946742       0.55714789       1.90769887      -3.50644436       0.25679292
H        3.48441075       5.40056810       7.84383821        0       0.05259820       0.51350943       0.10138368       0.40496804       3.36408082       0.26345359
H        2.56679762       6.41699404       5.44500000        0       0.81064169       0.15013675       0.64914702       0.00462884       0.01963968       5.73304142
H        5.22480766       3.31755194       7.52460696        0       0.52403033       0.71397159       0.77805873       9.62736496      -1.99427279      -1.66143241
